 # Version information for this restart file 
 # current date 2022-11-29 19:26:56.698
 # current working dir /scratch/work/courses/CHEM-GA-2671-2022fa/tp2353/comp-lab/comp-lab-class/Week12/Runs/Protons
 # Program compiled at                              Sat Dec 12 18:27:15 EST 2020
 # Program compiled on                                         cs001.nyu.cluster
 # Program compiled for                                                nyu-intel
 # Source code revision number                                       git:8c64c6e
 &GLOBAL
   PRINT_LEVEL  LOW
   PROJECT_NAME proton_aimd_1ns_every0.5fs
   RUN_TYPE  MD
   WALLTIME 21600
 &END GLOBAL
 &MOTION
   &GEO_OPT
     OPTIMIZER  BFGS
     MAX_ITER  100
     MAX_DR     3.0000000000000001E-03
     &BFGS
     &END BFGS
   &END GEO_OPT
   &MD
     ENSEMBLE  NVT
     STEPS  2000
     TIMESTEP     4.9999999999999994E-01
     STEP_START_VAL  1500
     TIME_START_VAL     7.5000000000000762E+02
     ECONS_START_VAL    -1.1027507157744390E+03
     TEMPERATURE     3.0000000000000000E+02
     &THERMOSTAT
       TYPE  GLE
       REGION  MASSIVE
       &GLE
         NDIM  5
         A_SCALE     1.0000000000000000E+00
         A_LIST     1.8595758612559999E+02    2.7263853498399998E-01    1.1526100454610001E+01   -3.6414578262600003E+01 \
             2.3173375816020001E+02
         A_LIST    -2.7809524712060002E-01    8.5951591808710006E-05    7.2189048017650004E-01   -1.9844539343859999E-01 \
             4.2409257583420001E-01
         A_LIST    -1.4825808131210000E+01   -7.2189048017650004E-01    1.3590902121280000E+00    5.1498896280349999E+00 \
            -9.9949268450990001E+00
         A_LIST    -1.0372189126880000E+01    1.9844539343859999E-01   -5.1498896280349999E+00    2.6661910891169999E+01 \
             1.1507715495310000E+01
         A_LIST     2.1801346360420001E+02   -4.2409257583420001E-01    9.9949268450990001E+00   -1.1507715495310000E+01 \
             3.0958394565589998E+02
         &THERMOSTAT_ENERGY
               6.7425370350442690E-04
              -3.4384444598357508E-03
               2.6104921480740885E-04
               2.4538201064182199E-03
              -1.7919170269245149E-02
              -1.6094820147917417E-04
              -6.0785099560682525E-03
              -1.0121126207989371E-03
               6.5492015212287929E-03
               3.3098122401963243E-03
               9.0569284666782747E-03
              -2.9592792753001477E-03
              -3.1911016730961105E-03
              -7.2073131006527751E-03
               1.4236372316494793E-02
              -6.0345245904025978E-03
              -1.5787137860265041E-03
               3.9145028301079566E-03
               5.8760598362540013E-03
              -8.6081338270342634E-04
               1.5073876774190538E-03
               3.9252850838145479E-03
              -3.3624723765580799E-03
              -2.8546364278120811E-03
              -3.3006740623532970E-03
              -5.9354882816449427E-03
              -1.2827922371968579E-03
              -3.1287106151820930E-04
               2.5142947900830604E-03
               3.9496267333242975E-03
              -7.3116444686909280E-03
               1.1698068644269395E-03
               1.0729679677361529E-02
              -6.4773666606691798E-04
              -1.0144239038058804E-02
               1.6057022551611521E-02
              -4.7988048143168794E-04
              -3.4827931445920680E-03
               1.4549512789839127E-03
               1.0826384246441247E-03
               2.4903584026333123E-03
              -1.6555045281536960E-03
               6.5218627082952495E-03
              -1.9728230388679560E-03
               3.9292603624351240E-03
              -1.5939301173331468E-03
              -3.0256267615865529E-03
              -6.8922250690754217E-04
               9.5109617116404270E-04
               3.3503977894162353E-03
              -4.0751408422633039E-03
               2.9285538957932659E-03
              -4.1257915693187295E-03
              -5.8154783895465450E-03
              -9.2914261932316288E-03
               1.4487560889875060E-03
              -8.2445426285644675E-04
              -6.3395407524713052E-03
               7.0420466127561288E-04
               8.9153327457023954E-03
              -3.9556047182669109E-03
              -9.9529777152312735E-03
               1.7246987878020689E-02
               3.0333781347155253E-04
              -1.9255454015896446E-03
               6.0351172633211639E-03
              -1.5074655443424302E-03
               8.4841497424450706E-03
               1.5102127923689434E-02
               1.0757553931531765E-03
               4.2465514247828673E-04
              -7.2394634058057595E-03
              -2.7642477491530105E-03
              -6.4650304863300104E-05
              -2.1104424070010740E-03
              -8.2478849061928209E-03
               8.9597278780996128E-03
              -1.9634905464428372E-03
               3.6571891128209721E-04
              -6.8758166455928898E-03
               8.4417085732137690E-03
              -2.8810346294687239E-03
              -3.2324632676838559E-04
              -1.4901998304731640E-03
               6.8971518573193429E-03
               8.5074861759186597E-03
              -9.1878595384617089E-03
               8.2727579545055063E-04
               7.0205975371495366E-03
              -5.9642940346773298E-03
               4.3200271100673031E-03
              -5.9818824623518044E-03
               2.2699365088762113E-03
               1.4854323716913327E-03
              -6.8433001128818463E-03
               9.7137461343876734E-03
               3.7592939176805716E-03
               2.2803578046247893E-03
               1.0669338984413119E-02
               6.9941692187868078E-03
              -5.8768813778940394E-03
               4.7924409610557698E-04
               5.8078672218538196E-03
               3.8894425259871713E-04
              -6.8311055572282823E-03
               8.4659657346599325E-03
               6.4454363636228312E-03
              -3.1638508265058454E-04
               7.1729292490125612E-03
              -2.4247130867093166E-03
              -2.4238796368609857E-03
               8.2086543531836604E-04
               8.6416104806048798E-03
               3.9855555337879548E-03
               6.3777200117923543E-03
              -2.3829315365407602E-03
              -8.0076884788161974E-03
               2.3352954240202506E-03
               3.3668796839922817E-04
               1.0255672657835443E-03
              -5.0684028692854367E-03
               2.3589399732245166E-03
               4.8662359067154085E-03
              -2.4610813403395408E-03
              -2.7083966184233824E-03
              -9.2390480607608527E-03
               8.0814448423141144E-03
               7.1273062167726117E-04
              -1.0710085404583426E-03
              -2.2098723582877552E-03
              -5.8285651802977723E-03
               9.3913387788220996E-03
              -3.5261369322740885E-04
              -9.8670362329391671E-04
               2.6287572361192790E-04
               5.3564492333136853E-03
              -2.3116984958191818E-03
              -8.6281322519986086E-04
              -4.3411073199049180E-03
              -2.9722809315138985E-03
              -7.9839175124240104E-04
               9.1637925018520205E-03
               1.3485082172983151E-02
              -1.0901051097469083E-02
               2.4876478483781090E-03
              -2.2260692357035450E-03
               1.0494625284321562E-02
               6.2631890382478916E-03
              -7.4885228992460152E-04
              -3.6204857653876349E-03
              -1.0425321065082373E-02
               4.8658930353853332E-03
               3.1730460602971411E-03
               1.9131964175028836E-03
               5.3929673813228581E-03
               3.6603697527993668E-03
               1.7768136891584000E-03
              -5.4871834170206494E-03
              -1.0274569640589560E-02
               4.9343503604237383E-03
               4.6396583197687571E-03
              -2.7288410186591125E-03
              -2.7658788820832756E-03
               1.2355702444895496E-03
               3.2390337960061756E-03
               1.8358024232903381E-02
              -2.8286097164122122E-04
              -1.6473481727046810E-02
              -1.3144174847692068E-03
               6.0779002391978237E-03
               5.0108904471354962E-04
               7.4497973923714253E-04
               5.6672336690566285E-05
              -1.8509693808278996E-03
               3.1280266318648407E-02
               9.4543503989504979E-03
               1.4797111242170815E-02
               1.9081326002574374E-04
              -6.8151037438550031E-03
               7.9083306096197608E-03
               7.2567436869452962E-03
               3.1973977658292974E-03
               1.2154684733583032E-02
              -7.8793166344683658E-03
              -3.6112447149942142E-04
              -1.0006024542236341E-03
               1.2029997176167585E-02
               1.6712678980536763E-03
              -1.3363616844539075E-03
               3.8061024529735181E-03
              -5.4943018063511196E-03
              -6.4932528231939385E-05
               1.8859032360905262E-03
              -1.3423605686490158E-03
               2.2311156224817576E-03
               1.8490330652442238E-03
              -2.3748623722654426E-03
               9.1819706056342563E-04
              -5.1067935621767991E-03
               3.4615208615739407E-03
               4.7827743009071838E-03
               1.2585275048121525E-03
               3.0108545881069909E-03
               5.7765769745212834E-03
              -1.0288333910295460E-03
              -8.8801510720616008E-03
               6.2497790392029400E-03
               1.4312936145282700E-03
              -9.9305483403017113E-03
               1.8903636029799744E-02
              -3.9457787448459389E-03
              -1.8592424797461756E-04
               5.7961081669971075E-05
               1.1435584918951212E-03
              -5.9431591314534635E-03
               4.2780879156314386E-03
              -7.6004345122680384E-03
               7.2819106078709575E-03
               1.6875665442992396E-04
               5.0355023416566169E-03
               1.1078520658648887E-03
              -1.1289760314662691E-03
              -1.1738546409266873E-02
               2.1289378674637072E-03
               3.5114056675120318E-03
              -3.2039464441303224E-03
              -3.4801445549652432E-03
               5.2539172153047448E-03
              -1.3010674568077894E-03
              -8.3297352322820890E-04
              -6.7771161248048259E-03
               6.2499003443171070E-04
               8.8516915650961193E-03
              -3.7682926571743431E-03
              -4.2913540351659125E-03
              -1.4494106674441393E-02
               3.0923851684922163E-03
               1.0569256625526191E-03
              -1.2086450262113841E-03
               3.7985464574932559E-04
               3.3585241620485689E-03
               6.9839138005729651E-03
               4.7669875725135178E-03
              -4.8830329267500385E-04
               1.0083263466405556E-03
               2.3474791606735660E-03
               1.5061847641272535E-03
               6.2195166751625938E-03
              -1.5459875140180351E-03
              -2.9420189242165317E-03
               6.7553889602375208E-03
              -4.3522087183310955E-04
              -5.2106815373801673E-03
              -1.1691138760356573E-02
               5.7684393110955948E-03
              -3.0089899894942687E-03
               2.5461235668842335E-04
               1.2790195781691566E-03
              -6.2434805876179578E-03
              -1.1824427453248590E-03
               9.8217772578487149E-03
               4.7538354668802954E-03
               4.6994090974010264E-03
              -2.3119061047891004E-03
              -5.0303568796031294E-04
              -2.9910739336276625E-03
              -1.9419401505939538E-03
              -8.0859114206069133E-03
              -2.2244949935015237E-03
               9.5258504998451139E-03
               4.2948219082349819E-03
              -1.1500895793439988E-02
               2.5502120423964918E-03
               8.8409854429414899E-03
               1.0015120887494075E-03
              -1.1576947628421292E-03
              -1.5801854593809391E-02
               1.7475596964447216E-02
               3.2440459024876485E-03
               1.2441156784976462E-03
              -4.3379414630744483E-03
              -5.3034899296036464E-03
               1.3853372644946397E-03
               1.2701342457613172E-02
               9.3161346977963747E-03
              -7.3582096205615402E-04
              -6.3007875807670330E-03
              -3.5470255814489251E-03
              -2.0293672963547060E-02
               6.9053577854291713E-03
               1.8979555551028003E-02
              -4.2511158260790773E-03
              -4.3073904788051235E-03
              -1.4978177169488471E-03
               1.0611682160015861E-02
               1.4268819899680119E-03
              -8.3404442657416655E-03
               1.6087152823878341E-02
               1.6621000960284772E-02
              -2.3131087087595210E-02
              -1.5607322903957394E-04
              -1.0078375545307374E-03
               3.2211591113829228E-03
               1.0543032050131414E-02
               5.4290901724642331E-03
              -7.8229732095758710E-03
              -6.7218117503906986E-03
              -8.0985388472003227E-03
               1.1571907758002525E-02
               6.9464302014236234E-03
               1.9636582560107010E-03
              -4.6447678530013355E-03
               3.6978887915570225E-03
               4.1219642664465121E-03
               4.6036928487053251E-06
              -2.8780831391294510E-03
              -1.5345374514276789E-04
              -8.7660173215705645E-03
              -1.2484259476185184E-02
              -4.8624083734096083E-03
              -7.9477909415010027E-04
              -1.0448321556937564E-03
               2.9163732280741103E-03
               4.2666841479286595E-03
              -5.0787983661912993E-03
               1.4065152293440960E-02
               2.6117076522287818E-03
               5.2737036705633872E-03
               1.1512652628062774E-03
               3.6631693568706159E-03
              -5.8862872465846785E-03
               5.2191422950881470E-03
               2.1686791110828978E-03
              -5.0569484458522461E-03
               1.9045861027541819E-03
              -1.4359486912731230E-03
               5.0593747229131514E-03
               3.8800917618532407E-03
               6.6180645055393338E-04
               4.9069198369472078E-03
              -4.1971627946260973E-04
              -1.0175718685169212E-02
               4.0377672099590834E-03
               8.5231480098680950E-04
               7.3914901624979341E-03
               2.9421586643494737E-03
               4.3803564059915383E-03
              -8.2040680388833255E-03
               1.0366720547562306E-02
               2.1920046532879285E-03
              -7.7112968772944301E-03
               3.5159165455681644E-03
              -6.6021821749267171E-03
              -3.7643373050775322E-03
               5.1139456440152864E-04
              -4.2693879391030266E-03
              -2.2607213244317187E-03
              -3.7544749772157595E-03
              -6.3515484994821451E-03
              -3.3293666390574296E-03
               8.9927100731222688E-04
              -2.1777621406993031E-03
               1.2857735951966591E-02
               2.5167891881935842E-03
              -3.9849493307619012E-03
               2.9359371656277962E-03
               1.7945434234787536E-02
              -4.9127574227322141E-04
              -1.7137111597595286E-02
              -4.7375430921016530E-03
               5.7661828364714346E-03
              -1.1769035492796940E-03
              -3.1836701718153571E-03
              -1.8574839875822311E-03
               5.2351250814042748E-04
               3.1152390061998186E-03
              -1.4071074375626677E-02
              -1.2534999516673440E-02
               5.3188661289115006E-03
               7.4636979032733442E-03
               6.1986847180071124E-03
               7.3883032561254782E-03
              -9.8125730772759571E-04
              -4.1948835908730891E-03
              -2.1118208312857486E-02
               8.5443893138691606E-04
               6.3667523187230400E-03
               1.4507334708060193E-05
               5.0869897423851456E-03
               1.4488015780507444E-03
              -6.8988486684993817E-03
               7.5018554132331230E-03
               1.9046727642556937E-03
              -4.0458407759864819E-03
               1.2465049892813464E-02
              -4.7698317641666150E-03
              -4.7054357518537867E-03
              -1.8762364098835228E-03
               1.5477524006525050E-03
               6.1572956418835920E-04
              -3.1083841742343275E-03
               8.8940529460395795E-03
              -4.7071794551704418E-03
              -8.0341082685311989E-03
              -3.1663558796511801E-03
              -2.5498046797534360E-03
              -1.9133227896676664E-03
              -5.9444004746378768E-04
              -9.6928608103794944E-05
               9.1675562307001000E-03
               7.2512641055623938E-04
              -3.5110376904489400E-03
              -4.3263244463426758E-03
              -5.7978084121971581E-03
               3.8558400139390458E-03
               2.1469845184843169E-03
               2.7926243077731139E-03
               3.8043568101560053E-03
              -5.2914727055784598E-05
              -4.4790945920138306E-03
               3.2244928180388387E-03
              -3.3863193172488973E-03
              -1.2315082492067452E-03
              -5.7949791811359522E-03
               8.4566420667324879E-03
               2.3034265067068123E-03
               2.6023378052074529E-03
              -6.0116642142243777E-03
              -3.5122870437594837E-03
               2.1057403988775196E-03
              -1.5507543208619922E-03
              -4.2501035703305873E-03
              -1.1454146108702523E-02
               3.7224172727140219E-03
               1.0762994120752961E-02
               4.0404722068335622E-03
              -3.9223965027214355E-03
               6.3767659822542883E-04
               5.4389149373758397E-03
              -2.7362407833124618E-03
               4.2243183241544129E-03
              -6.8790929256401130E-03
              -1.5934892371439286E-03
               1.0721161859143364E-02
               1.4408405686073596E-03
               4.2435542447272732E-03
               7.6882357369695729E-03
               1.2764015335359355E-02
               5.2982867917343475E-03
              -1.4638763858928198E-02
              -3.6303167248707157E-03
              -5.2745448043712726E-03
               1.1688273559746346E-03
               2.7824145417569886E-03
               2.0790545900124249E-04
              -6.5593556807953335E-03
              -1.0905281822859353E-02
              -3.4318239672183806E-03
              -3.3500272701623081E-03
               4.8493435757559870E-03
               1.2298183829218160E-02
               5.4503123140908372E-03
              -2.3823018883371624E-03
               6.0224746655774637E-03
               5.7540123068438847E-03
               1.4687042157034821E-03
              -1.3553306833725730E-02
              -1.1474682987791776E-03
               1.0000926244697207E-02
              -1.3866224662116152E-03
               1.8274409934746359E-03
              -2.2797874658148005E-03
               4.5802449661087727E-03
               8.6642016901527022E-04
              -3.5526060919346741E-03
               6.0569509065194977E-03
               6.8736339386716422E-04
              -4.4787366989771640E-04
              -5.8059760646695059E-03
              -5.2226036132237998E-04
              -2.2389679701336805E-03
              -3.4768446243195398E-03
               1.9880954766442515E-03
               1.1919527744000341E-02
              -1.2486630641135928E-03
              -3.1941354795197250E-03
              -3.4395408161681899E-03
              -6.8564991707680155E-03
               3.7703971757789292E-03
              -1.7870006257856878E-03
               2.6222742138727957E-03
               3.7025707318262689E-03
               3.0174839055539865E-03
              -5.1797553631225566E-03
              -7.9479853737143853E-03
              -4.1768137771850072E-04
               1.5869204806881617E-03
               3.0342311235837167E-03
               2.2630372998363722E-03
               3.4347157443272349E-03
               4.4750797067811699E-03
               1.8061241264875460E-03
              -7.8501878092319434E-03
               1.2357370573692744E-02
              -1.5371845002790938E-03
              -8.5735346952650615E-03
              -4.5310260515883227E-03
               1.5037895346007861E-03
               7.8456453896930817E-03
               4.6296542313340183E-03
              -8.7224762228953426E-03
               5.4678786774257334E-03
               1.4789095175983141E-03
              -1.3345616215130871E-02
               1.9025670942967428E-02
              -1.9536386829574384E-02
              -2.7593050756911067E-03
               4.2741491688080540E-03
               4.6097448693110657E-03
               4.5074363990837314E-03
              -1.6004349733526230E-02
               9.1856939784911249E-03
               6.3852432508860061E-03
               2.2557289499055863E-03
              -5.9515453389798623E-03
               2.1193866295361168E-03
              -1.9920021124508417E-03
              -4.3262600262115158E-03
               1.3765276560009007E-03
               4.2066116103891158E-03
               9.8425209398717434E-03
               5.3146169486435399E-03
              -1.1459683524249810E-02
              -7.5547391953168196E-03
              -5.0146942639244028E-04
              -8.5684759161280496E-04
               6.2919525581405932E-04
              -1.0673837018967914E-05
              -1.0488214640099239E-03
               6.6536220921472799E-03
              -1.5003066009292359E-03
              -1.0072672321399410E-03
              -2.3324019083799359E-03
              -4.5167709432789840E-04
               1.6432552155567059E-03
               3.5230328208331655E-04
               3.6961141247878206E-03
              -2.0138090794347102E-03
               9.0341752536883570E-03
               1.0954867259249892E-02
              -9.5073503505621083E-03
              -2.6617623644032283E-03
              -1.3796750788291927E-03
              -4.5173289376130585E-03
               6.7547846763448102E-04
              -1.4910443506965443E-03
               4.8958879135273543E-03
              -1.8439411681961551E-03
               9.1969773923288641E-03
              -2.3294157647779255E-03
               1.3591228859618075E-03
               6.8348947967658514E-03
              -3.6742943619103704E-03
              -4.5455255959874303E-03
              -2.6412856676424715E-05
               7.0987097305838243E-03
              -2.5143625300762407E-03
              -1.6734736797352700E-03
               5.1701570520870273E-03
              -4.6008605175122475E-03
              -9.4438568090939685E-04
              -3.3516532098775090E-03
              -4.2618602570711778E-03
              -9.0815143411239786E-03
               9.4217171202198996E-03
               7.3309608562602980E-03
               1.1450309444974324E-02
               5.8275231601431611E-03
              -7.0961062685319966E-03
         &END THERMOSTAT_ENERGY
         &RNG_INIT
Wiener process for Thermostat # 1        1 F T T   1.0570193072987602E-01        2554248455.0        3733268398.0        2096963647.0         915983833.0        1292997779.0         989563289.0             12345.0             12345.0             12345.0             12345.0             12345.0             12345.0             12345.0             12345.0             12345.0             12345.0             12345.0             12345.0
Wiener process for Thermostat # 2        1 F T T  -5.0729818522276993E-01         187792199.0        1332764939.0        1272087322.0         282682701.0         988697858.0        4086000388.0        3692455944.0        1366884236.0        2968912127.0         335948734.0        4161675175.0         475798818.0        3692455944.0        1366884236.0        2968912127.0         335948734.0        4161675175.0         475798818.0
Wiener process for Thermostat # 3        1 F T T   8.9774137220556466E-02        3755061031.0        1753083868.0        1351179932.0         343881147.0        3312142877.0        1244557929.0        1015873554.0        1310354410.0        2249465273.0         994084013.0        2912484720.0        3876682925.0        1015873554.0        1310354410.0        2249465273.0         994084013.0        2912484720.0        3876682925.0
Wiener process for Thermostat # 4        1 F T T   2.1447125495896904E-01        2430503636.0         902227617.0        3039217662.0         205693714.0        2375800914.0        4220709598.0        2338701263.0        1119171942.0        2570676563.0         317077452.0        3194180850.0         618832124.0        2338701263.0        1119171942.0        2570676563.0         317077452.0        3194180850.0         618832124.0
Wiener process for Thermostat # 5        1 F T T  -7.4974817695318574E-01        3949927612.0        4293465109.0         224208328.0         677588237.0        2173092809.0        2514687022.0        1597262096.0        3906379055.0        3312112953.0        1016013135.0        4099474108.0         275305423.0        1597262096.0        3906379055.0        3312112953.0        1016013135.0        4099474108.0         275305423.0
Wiener process for Thermostat # 6        1 F T T  -2.3195632299180402E+00        4147399821.0         968438491.0         174961265.0         382156541.0        3672303660.0        2385050302.0          97147054.0        3131372450.0         829345164.0        3691032523.0        3006063034.0        4259826321.0          97147054.0        3131372450.0         829345164.0        3691032523.0        3006063034.0        4259826321.0
Wiener process for Thermostat # 7        1 F T T  -8.3038096976097500E-03        3725962017.0        3124905816.0        1692649901.0        3685368087.0         990134651.0        3321809881.0         796079799.0        2105258207.0         955365076.0        2923159030.0        4116632677.0        3067683584.0         796079799.0        2105258207.0         955365076.0        2923159030.0        4116632677.0        3067683584.0
Wiener process for Thermostat # 8        1 F T T   7.2955713326517235E-01        1426374835.0        1022225665.0        3431852557.0        2945126969.0        1347790872.0        2047858768.0        3281794178.0        2616230133.0        1457051261.0        2762791137.0        2480527362.0        2282316169.0        3281794178.0        2616230133.0        1457051261.0        2762791137.0        2480527362.0        2282316169.0
Wiener process for Thermostat # 9        1 F T T  -8.3876742673612970E-01        3633457436.0         863053678.0         665967915.0         928783000.0        4027924725.0        3556250224.0        3777646647.0        1837464056.0        4204654757.0         664239048.0        4190510072.0        2959195122.0        3777646647.0        1837464056.0        4204654757.0         664239048.0        4190510072.0        2959195122.0
Wiener process for Thermostat # 10       1 F T T  -6.7138423863751628E-01        3282585865.0         909372753.0         488063086.0        2442536289.0         174422437.0         477575080.0        4215590817.0        3862461878.0        1087200967.0        1544910132.0         936383720.0        1611370123.0        4215590817.0        3862461878.0        1087200967.0        1544910132.0         936383720.0        1611370123.0
Wiener process for Thermostat # 11       1 F T T  -7.2169956836733329E-02        3039538231.0          25912629.0        1608189467.0        1823124278.0        2331127605.0        2449500504.0        1683636369.0         362165168.0         814316280.0         869382050.0         980203903.0        2062101717.0        1683636369.0         362165168.0         814316280.0         869382050.0         980203903.0        2062101717.0
Wiener process for Thermostat # 12       1 F T T  -6.7722400494670465E-01        2762226669.0        4262778377.0        2250707948.0        3120407528.0        3704866228.0        1185520965.0         272317999.0         166758548.0         310112982.0         201045826.0        1680231254.0         118290799.0         272317999.0         166758548.0         310112982.0         201045826.0        1680231254.0         118290799.0
Wiener process for Thermostat # 13       1 F T T  -7.3817531449270457E-01        3689403510.0         367299738.0        3636386471.0        1925893934.0        3355800516.0        3520562622.0        2245755202.0        1652682525.0        2865544364.0         721509566.0         209733568.0         592362218.0        2245755202.0        1652682525.0        2865544364.0         721509566.0         209733568.0         592362218.0