 # Version information for this restart file 
 # current date 2022-11-29 20:49:22.851
 # current working dir /scratch/work/courses/CHEM-GA-2671-2022fa/tp2353/comp-lab/comp-lab-class/Week12/Runs/Protons
 # Program compiled at                              Sat Dec 12 18:27:15 EST 2020
 # Program compiled on                                         cs001.nyu.cluster
 # Program compiled for                                                nyu-intel
 # Source code revision number                                       git:8c64c6e
 &GLOBAL
   PRINT_LEVEL  LOW
   PROJECT_NAME proton_aimd_1ns_every0.5fs
   RUN_TYPE  MD
   WALLTIME 21600
 &END GLOBAL
 &MOTION
   &GEO_OPT
     OPTIMIZER  BFGS
     MAX_ITER  100
     MAX_DR     3.0000000000000001E-03
     &BFGS
     &END BFGS
   &END GEO_OPT
   &MD
     ENSEMBLE  NVT
     STEPS  2000
     TIMESTEP     4.9999999999999994E-01
     STEP_START_VAL  1999
     TIME_START_VAL     9.9949999999998238E+02
     ECONS_START_VAL    -1.1027507157744390E+03
     TEMPERATURE     3.0000000000000000E+02
     &THERMOSTAT
       TYPE  GLE
       REGION  MASSIVE
       &GLE
         NDIM  5
         A_SCALE     1.0000000000000000E+00
         A_LIST     1.8595758612559999E+02    2.7263853498399998E-01    1.1526100454610001E+01   -3.6414578262600003E+01 \
             2.3173375816020001E+02
         A_LIST    -2.7809524712060002E-01    8.5951591808710006E-05    7.2189048017650004E-01   -1.9844539343859999E-01 \
             4.2409257583420001E-01
         A_LIST    -1.4825808131210000E+01   -7.2189048017650004E-01    1.3590902121280000E+00    5.1498896280349999E+00 \
            -9.9949268450990001E+00
         A_LIST    -1.0372189126880000E+01    1.9844539343859999E-01   -5.1498896280349999E+00    2.6661910891169999E+01 \
             1.1507715495310000E+01
         A_LIST     2.1801346360420001E+02   -4.2409257583420001E-01    9.9949268450990001E+00   -1.1507715495310000E+01 \
             3.0958394565589998E+02
         &THERMOSTAT_ENERGY
               1.1014051581461073E-03
              -3.1445434873349138E-03
              -3.5543797912789446E-03
               1.9935128359494674E-04
              -2.0189400083114532E-02
               1.8489595575889959E-03
              -6.8772846199668634E-03
               9.2204044324772840E-04
               5.3160826589792156E-03
               1.5240014269118339E-03
               7.1990596428115642E-03
               4.6459891662998373E-03
              -8.9144668120678498E-03
              -2.8291724695091321E-03
               6.5493319929191777E-03
              -4.0414753220368244E-03
               3.3179994007506109E-03
              -1.1889406693757247E-04
               3.4218902107736216E-03
               6.3751834049176055E-04
               8.6636127314100716E-04
               9.8506298071985195E-03
              -9.3766467013862761E-03
              -1.0632418374221252E-02
              -2.6331447092324404E-04
              -6.0939380532840622E-03
              -1.5955088292076457E-03
              -2.4763370826268640E-03
               2.0338381608779694E-03
               3.9025260108941744E-03
              -3.1410490608879365E-03
               2.5832247957417241E-03
               8.4412397139517672E-03
               6.1518236731283952E-05
               1.1757695561819574E-03
               7.9615242154917418E-03
               2.9141958042852270E-03
              -2.3316948143379942E-03
               1.1545937261678023E-03
              -1.3056941683664016E-03
               7.8086341818751938E-03
              -8.5426658585315042E-03
               6.3648507248540691E-03
               4.0719244677439644E-03
               5.9042328981682513E-03
               4.2394398215016152E-04
              -6.5666281270705448E-03
              -2.1146262732401164E-03
               2.0755783784854268E-03
              -9.1545819516223670E-04
              -3.3024621452201900E-03
               8.9011468134021186E-03
              -8.1973203287651949E-03
              -9.7594516686606760E-03
              -9.0375217414912952E-03
               2.5591912705253007E-03
               1.5351769832474388E-03
              -1.0968950572499950E-02
              -1.4374701533335524E-03
               1.2386445011254247E-02
              -1.0785276886960474E-03
              -6.6363310220654117E-03
               1.9691523068915296E-02
               9.9329027472940586E-04
              -4.1333023583053569E-03
               4.9997981459635526E-03
              -1.2902113413612018E-03
               1.0458928055586944E-02
               1.7799064780537888E-02
              -3.1604545390283099E-03
              -3.5710727936894087E-03
              -5.6865066545942703E-03
              -2.6980924534487929E-03
               2.1509895732781553E-03
              -3.4545598381501433E-03
              -1.2808832658088899E-02
               9.6514773159413429E-03
              -1.0148090183036589E-03
              -1.7001673899620152E-03
              -3.7913026435447178E-03
               8.3871929018243287E-03
              -5.9583150446072021E-03
               1.4708480583716481E-03
              -1.2906512190798084E-03
               1.0457012801369020E-03
               1.0905610041104153E-02
              -6.4454713574060374E-03
              -8.3602310631818236E-03
               1.1139958647355907E-02
              -1.1440339276822737E-02
               6.4880207357409514E-04
              -8.0866201623060671E-03
              -1.2630987950523650E-04
              -1.7556468803207445E-03
              -4.6115380150501531E-03
               8.8101375575397253E-03
               7.1162907810894344E-03
               4.7193546813691220E-03
               9.4738640154128050E-03
               3.5620239366251317E-03
              -4.4160758824870810E-03
              -3.7200885893132161E-03
               2.9333376997334485E-03
              -2.8156746432781853E-03
              -1.7871934308618602E-03
               1.3964823166568769E-02
               8.8252387623976494E-03
               4.9197485713523015E-04
               9.4909301400110009E-03
              -4.5413135646591024E-03
              -1.9087858999119753E-03
               8.4341702457486672E-04
               1.1057173278978793E-02
              -5.2756833828104454E-03
               5.9861426588743360E-03
              -7.6165547480398451E-04
              -1.1439583875100495E-02
               6.5533818077755828E-04
               2.1172457242928104E-03
               2.5328053135992680E-03
              -8.4942046019969106E-03
              -6.5038416088841061E-04
               1.1892781030859204E-02
              -2.3534196144153023E-03
              -6.4227616770893116E-03
              -1.3759768187509458E-02
               8.4693781011832264E-03
               3.3057123464951308E-04
              -3.6370848106886391E-03
               5.2434382442545164E-03
              -1.0725084705854308E-02
               6.3939835714158216E-03
               3.9945597085088878E-04
               2.1207752185901864E-04
              -6.9475901325750087E-05
               7.0942644715854732E-03
               2.5202665890781137E-04
              -3.1072611079334461E-03
              -1.0268012968939973E-02
               2.9544979115466120E-03
              -7.4250204626385673E-03
               1.0794184493861903E-02
               1.8284488261276034E-02
              -9.5116618856711122E-03
               8.0861078763101307E-03
              -6.0736199452304301E-03
               8.7533123026682386E-03
               1.1620899970988955E-02
              -3.0292787724270826E-03
              -6.0570794507084601E-03
              -1.4028655338150614E-02
               6.6072249348105763E-03
              -1.7792365415830529E-03
               5.9789131531563979E-03
               7.3322829362996245E-03
              -1.0173979255854587E-03
              -9.4620048104685709E-04
              -1.8129755758316453E-03
              -1.4425621561535932E-02
               7.1769756673486038E-03
              -1.0834001140584786E-03
              -2.6438999969658379E-03
               2.2564691716589779E-03
              -8.7731704234527460E-04
               1.0393622599465309E-02
               2.0835231354742349E-02
               5.1666232310327870E-03
              -3.0911351462600663E-02
               4.6129529260341400E-03
               6.7108463796092662E-03
              -5.4558056559897254E-03
               5.2538825902799708E-04
               3.0899334472520431E-03
              -1.5938950936571295E-03
               2.7775741637053944E-02
               6.4273170876422503E-03
               1.8270733379622216E-02
               2.3830646117811798E-03
              -1.3307391220068285E-02
               8.0217540455322991E-03
               1.3781889575667148E-02
               1.4882871935208816E-03
               1.6228673425762306E-02
              -8.0815200411529058E-03
              -1.6810624029395331E-04
               2.8053398767885127E-04
               1.4436108019062742E-02
               1.7132389551881950E-04
              -8.7309380812140118E-03
               5.9057565508359956E-03
              -9.3824105861853337E-03
              -8.5289051010992004E-04
               3.9776543911998041E-03
              -2.1814283579358216E-03
               2.4960379240560084E-03
               3.4261871941927333E-03
               8.2114018374238192E-04
               1.2899635598255051E-03
              -1.0156209214287452E-02
               4.6810582236014881E-03
               9.4202718005803251E-03
              -3.6408706054853941E-05
               1.0749765459887027E-03
               6.2225128268386092E-03
              -2.7548613387796302E-03
              -1.3093182687218567E-02
               9.6342581609473715E-03
               7.7853441705319232E-03
              -8.1480270734635256E-03
               1.5220084821089891E-02
               1.3901026905270698E-03
              -1.7814153360645229E-03
              -1.5011698323739763E-03
               8.0655076306841936E-03
              -5.0404007802874245E-03
               4.2150436318255076E-03
              -8.0700545221522764E-03
               7.2028247209003976E-03
              -4.0189374283302248E-03
               7.2824419087327737E-03
              -8.2181573061787495E-04
               1.8112582612775981E-04
              -1.4798599446333814E-02
               7.3032115427966657E-03
               8.5857325027718524E-03
              -2.5782354722274914E-03
              -8.8120415615300807E-03
               4.9168339570397727E-03
              -5.0307488978008311E-04
               9.0256705946838058E-04
              -9.1508692059714073E-03
               7.8629085721300060E-04
               1.0103900112889015E-02
              -5.4823658023628258E-03
              -3.3217810481834709E-03
              -1.1848301533030925E-02
               1.9039917206794925E-03
               3.5479914656259257E-03
              -4.9323178296190951E-04
              -3.3023232586191099E-04
               7.1248754039280422E-03
               1.0512666209825310E-02
              -3.9731549395306321E-04
              -4.3806591174567642E-04
              -9.3921819777038798E-04
               2.0337878934753298E-03
              -7.5233853602819749E-04
               6.3174401321178407E-03
               1.8658044261456086E-03
              -5.4146187540562900E-03
               1.1348129586217490E-02
              -2.4403933824729450E-04
              -7.3622525837015902E-03
              -1.7623710705741771E-02
               7.3726306976879636E-03
              -4.2740586807336646E-03
              -2.3744284900328178E-03
               2.0190271723880015E-03
              -4.8714046598939088E-03
              -1.1569475234420464E-03
               5.9545669326072437E-03
               1.0396397880588657E-02
              -1.7239464687341750E-03
              -1.4363140545521997E-03
              -3.0339891561925736E-04
              -3.9794983156803965E-03
              -4.7452467607138442E-03
              -4.9174933860802947E-03
              -2.3445159913795710E-03
               9.4550183529871802E-03
               7.0858267408676397E-03
              -1.1434284595372367E-02
               3.8446036041504656E-03
               9.1731117423251730E-03
               2.6563164220401027E-03
              -1.1712697903112801E-03
              -1.1938644842285913E-02
               1.9208594228652273E-02
              -2.6333897774945677E-03
               1.0760251258512731E-02
              -1.1139413813290170E-02
              -1.0039247056920227E-02
              -1.3962736829501723E-03
               1.3360151265338608E-02
               7.5895826352624035E-03
               1.6385704046761181E-03
              -3.9181363612263969E-03
              -1.6326690327302458E-03
              -1.5281685993392673E-02
               6.8448717830406538E-03
               2.4846072916673435E-02
              -4.3236772837466153E-03
              -2.9409139150045789E-03
              -1.6851402200339194E-03
               1.6791414735724319E-02
              -5.7018241812251264E-03
              -1.2891858021986568E-02
               2.0043464441525303E-02
               1.4087900191584082E-02
              -1.8283484599432815E-02
               3.5978446553048015E-03
              -1.2703096654158755E-03
               1.5040392100304472E-03
               1.7144699789239510E-02
               2.3621874627564247E-03
              -1.0463136820942215E-02
              -5.8202904309626324E-03
              -6.5576656460022186E-03
               1.5059118106570483E-02
               6.8744556326918943E-03
              -6.1370282457668844E-05
              -3.7681094241063962E-03
              -2.7523752548563830E-04
               3.8373311575463291E-03
               6.5914559203830271E-03
              -4.9198889844307529E-03
              -8.7342729876483238E-03
               2.6439798421694681E-03
              -1.4757260791300115E-02
              -9.6295974952967172E-04
               4.9799127498115778E-03
               5.5316892646149361E-04
               1.4455788477298567E-03
               6.6415534290383722E-03
              -1.2465170803539680E-02
               1.2281911810498241E-02
               8.4844618838975593E-04
               7.7757930052739952E-03
              -2.0421529609583968E-04
               3.0033741012746172E-03
              -9.8743096361698941E-03
               4.2573794674928252E-03
               3.4086844339224409E-03
              -7.7050910755990555E-03
               8.5830323465534448E-03
              -6.3179719227714594E-03
               3.3066361379254028E-03
               1.2539757327229828E-03
               3.7965940960673081E-03
              -1.2191872993734083E-03
              -1.4350860419884122E-03
              -6.0262678882044753E-03
               3.2453446876565652E-03
              -7.6463905984569232E-04
               3.5780855418043032E-03
               2.4375299244158693E-03
               8.5314628351042792E-03
              -9.5433454637151877E-03
               1.0034878860367842E-02
              -3.9321802898025851E-03
              -3.6875933854193046E-04
               5.1984373929540540E-03
              -9.3300679708588560E-03
               1.1207615677338426E-03
              -8.6529698708737537E-04
              -3.6370542911748909E-03
               1.1543216612423205E-04
              -6.2928513957538970E-03
              -1.1929688758703117E-02
               3.9854015679039291E-03
               4.4850779739478109E-03
              -1.0790407400649800E-02
               2.1724371646615115E-02
              -2.5272650245426434E-03
              -3.2433633752390958E-03
               8.0267113299940470E-04
               1.7014211788709616E-02
               1.9523435083272889E-03
              -1.4416536907007171E-02
              -1.9565173022195546E-03
               6.1383366138422057E-03
               2.5649707905680613E-03
              -1.0875878119092882E-03
              -3.6196411923379605E-03
               4.4778713284604381E-03
               4.7442219799358181E-03
              -7.3914191142185883E-03
              -1.4532022204304605E-02
               3.4331304574085736E-03
               7.8289318751372360E-03
               5.0701200053095462E-03
               6.9400638549020422E-03
              -3.9649334595983294E-03
              -3.3450865489775858E-03
              -1.7377491884179096E-02
               3.5746706893777019E-03
               3.5505183913332782E-03
               7.1204628894160267E-04
               1.8631264605214826E-03
               2.8393604329452651E-03
              -1.0797295315821315E-02
               6.9032504175152599E-03
               1.8322680880804743E-03
              -6.2517141698805482E-03
               1.7547806846294610E-02
              -1.9729048582806026E-03
               3.3891374360714888E-04
              -9.4522673618508621E-03
               7.0716027701551109E-04
              -2.3996340267019820E-05
              -3.0779788081044564E-04
               3.0099227869521909E-03
               4.4795470721981576E-03
              -1.1670334606343220E-02
              -5.0568848217825665E-04
              -1.3891391099376106E-02
              -5.5758362834587463E-04
               6.2647501329212299E-03
              -3.0028521841879647E-03
               3.4219672494567163E-03
               5.2210566350589568E-03
              -1.0006342839642786E-03
              -3.3283791980032299E-03
              -6.0553767297575065E-03
               5.9108709847763199E-03
               1.7632493327507665E-03
              -5.7295331565236640E-03
               2.6992962904495953E-03
               8.5423591259800992E-04
              -3.8173727424737468E-03
               5.7174468006933703E-03
              -4.8624684976422445E-04
              -4.4725161515093035E-03
              -6.9751983246480343E-03
               1.1085654766917198E-02
              -4.1445138410391184E-03
               6.8784229220416248E-04
              -9.0586642774390467E-03
              -5.1336994946733277E-03
               4.2717323298358794E-03
              -4.6578602368624851E-03
              -3.4119545697871368E-03
              -1.5092009832079759E-02
               1.2091488512363989E-02
               9.1533967625505551E-03
               3.5099819549788917E-03
               3.8010921039189396E-04
              -4.7468494837720751E-04
               1.2378249883128120E-02
              -2.0248889940489541E-03
              -1.7161968468866007E-03
              -9.4392174717661866E-03
               9.7984792877878028E-04
               1.0340310269171106E-02
               2.0642447548645140E-03
               6.7105478591609350E-03
               6.4473445677805490E-03
               1.2067341709390793E-02
               7.3499401730197887E-03
              -1.1831365897075400E-02
              -5.4373100878685908E-03
              -1.3415301815703292E-02
               5.4747481279852290E-03
               2.6703430190257202E-03
               4.6644023443122582E-03
              -5.6705405805495962E-03
              -1.0129533902009831E-02
              -5.9807154279065905E-03
              -5.8438266454597931E-03
              -4.2787858249047784E-03
               1.6564832458960406E-02
               4.8751471457811552E-03
              -4.5406506838258018E-03
               6.6192305454446871E-03
               2.0623948609472280E-03
              -2.5414594321813439E-03
              -1.3524075786180593E-02
               7.0206388329886408E-03
               9.4471569304179614E-03
              -6.3186129700136566E-03
               4.6277567832202285E-03
              -6.0102147655894389E-03
               2.3943747655144755E-03
               2.7984247236293161E-03
              -6.8132108197387579E-03
               1.2518109491613465E-02
              -2.5459644719563954E-03
               4.2692259903235521E-03
              -6.3722177347640772E-03
              -3.7686579775130669E-03
              -5.8933279402671405E-03
              -3.6824961991457636E-03
               3.3209727105098959E-03
               1.0205600484053475E-02
              -5.6262848287721096E-03
              -5.6794632158755423E-03
              -1.8275135511098745E-03
              -5.9878381228426715E-03
               9.9271104007442705E-03
               1.7246432158907355E-03
               4.5819644658358083E-03
               3.8089246816425540E-03
               5.4025261633706464E-03
              -7.8400935009179558E-03
              -6.7491578833463149E-03
               4.1750602971044309E-03
               4.3493010253400945E-03
               4.0493229402423061E-03
              -1.1834045604933495E-03
               8.0145625208490959E-03
               1.7642319761382065E-03
               5.0145610858731990E-03
              -6.4428628381836672E-03
               1.0826594493679077E-02
               2.4531187676804550E-03
              -1.0594967440087416E-02
              -2.7441686464329722E-03
               1.6847965252649367E-03
               7.0928861255415299E-03
               2.9760859093497863E-03
              -1.4420106448550551E-02
               6.8875761068584920E-03
               4.8511584669442571E-03
              -1.1235095730323851E-02
               1.3816986559939553E-02
              -1.5095551428416920E-02
              -1.0243633080298247E-03
               4.3109190860462368E-03
               4.9409785489327365E-03
               4.6852452395044104E-03
              -2.4748512227293445E-02
               9.8945507185075280E-03
               1.2362689693025855E-02
               3.1030671453918281E-03
              -4.2103166764173045E-03
               4.6913145658614647E-03
              -4.5324408807779241E-03
              -5.2699153425510206E-03
               6.2404247274543334E-03
               2.2504827458865715E-03
               1.1401997634898310E-02
               2.5177456942447173E-03
              -1.3554350277324823E-02
              -1.0221792311408261E-02
               1.8772775247328118E-03
              -1.1877647343253435E-04
               1.0350920918706721E-03
               2.0138602721813715E-04
              -3.4217977697446628E-04
               2.9806864537492636E-03
               1.2102333442876954E-03
               1.8206446769520243E-03
              -3.0470985944995375E-03
               1.9330052352817405E-03
               3.5845350722157054E-03
              -2.9110599169297848E-03
               3.9004376653038186E-03
              -6.5177981799090503E-03
               1.1651616482226752E-02
               7.8149254962206708E-03
              -1.2043154422677872E-02
               1.7985455872861677E-03
              -1.7484614008406556E-03
              -4.1877073169017684E-03
               6.9793078305925951E-04
               1.5391655437721164E-03
               1.6384819784862384E-03
              -5.3517966979056296E-04
               1.0580321128334130E-02
               8.8679643993010301E-04
              -1.2805893819736376E-03
               7.3072426923840601E-03
              -3.5792994385325902E-03
              -6.3382033263882608E-03
              -5.8957249532250525E-03
               7.5671382251875918E-03
              -8.7993881742930592E-03
              -3.9896446414330504E-03
               5.4925249959192988E-03
              -2.1787804118643260E-03
              -8.0829772340733977E-03
              -1.0330847079390599E-03
              -6.4262012137528239E-03
              -4.5385610066772421E-03
               6.7668089811662854E-03
               1.4461806471579079E-02
               1.4515975826449761E-02
               4.3663270818709516E-03
              -5.3952730497866157E-03
         &END THERMOSTAT_ENERGY
         &RNG_INIT
Wiener process for Thermostat # 1        1 F T T  -1.3877964172148927E+00        3819968671.0        1923139303.0        2505174482.0        1129753110.0        1102497896.0        2318485114.0             12345.0             12345.0             12345.0             12345.0             12345.0             12345.0             12345.0             12345.0             12345.0             12345.0             12345.0             12345.0
Wiener process for Thermostat # 2        1 F T T   5.9690975612399577E-01        1863048650.0        1167059563.0        4156553466.0        2659491592.0        2500563110.0        2967422577.0        3692455944.0        1366884236.0        2968912127.0         335948734.0        4161675175.0         475798818.0        3692455944.0        1366884236.0        2968912127.0         335948734.0        4161675175.0         475798818.0
Wiener process for Thermostat # 3        1 F T T  -1.9577134425325560E-01        2029679022.0        1992813296.0        1475024831.0        3744841000.0        4231717232.0        1872789393.0        1015873554.0        1310354410.0        2249465273.0         994084013.0        2912484720.0        3876682925.0        1015873554.0        1310354410.0        2249465273.0         994084013.0        2912484720.0        3876682925.0
Wiener process for Thermostat # 4        1 F T T  -5.5423907268054418E-01         972191078.0        3239779000.0        2283144792.0        4029872124.0        2868550739.0         388907277.0        2338701263.0        1119171942.0        2570676563.0         317077452.0        3194180850.0         618832124.0        2338701263.0        1119171942.0        2570676563.0         317077452.0        3194180850.0         618832124.0
Wiener process for Thermostat # 5        1 F T T  -3.6874052824979625E-01         246061856.0        2033992607.0        4208640487.0        3425480013.0        1713937449.0        3033523858.0        1597262096.0        3906379055.0        3312112953.0        1016013135.0        4099474108.0         275305423.0        1597262096.0        3906379055.0        3312112953.0        1016013135.0        4099474108.0         275305423.0
Wiener process for Thermostat # 6        1 F T T   5.7875332706651861E-01        4268450248.0        1240555256.0        2123119467.0         299173953.0        2368881629.0        2698044585.0          97147054.0        3131372450.0         829345164.0        3691032523.0        3006063034.0        4259826321.0          97147054.0        3131372450.0         829345164.0        3691032523.0        3006063034.0        4259826321.0
Wiener process for Thermostat # 7        1 F T T  -1.8983145396195047E+00        4260312323.0         705196258.0         937296972.0        1373994383.0        3179698350.0        3757299263.0         796079799.0        2105258207.0         955365076.0        2923159030.0        4116632677.0        3067683584.0         796079799.0        2105258207.0         955365076.0        2923159030.0        4116632677.0        3067683584.0
Wiener process for Thermostat # 8        1 F T T  -3.3116685260855833E-01        2351531572.0        3477839446.0        1021048571.0        1975906828.0        1893564842.0         777663015.0        3281794178.0        2616230133.0        1457051261.0        2762791137.0        2480527362.0        2282316169.0        3281794178.0        2616230133.0        1457051261.0        2762791137.0        2480527362.0        2282316169.0
Wiener process for Thermostat # 9        1 F T T   1.4386427466100791E+00        3265425123.0        2999969280.0        3048908474.0        1047403656.0         134736569.0        4209884843.0        3777646647.0        1837464056.0        4204654757.0         664239048.0        4190510072.0        2959195122.0        3777646647.0        1837464056.0        4204654757.0         664239048.0        4190510072.0        2959195122.0
Wiener process for Thermostat # 10       1 F T T  -2.3947144259907721E-01        2825100143.0        2025717467.0        3827127036.0        1422979577.0        1026966836.0        1481957392.0        4215590817.0        3862461878.0        1087200967.0        1544910132.0         936383720.0        1611370123.0        4215590817.0        3862461878.0        1087200967.0        1544910132.0         936383720.0        1611370123.0
Wiener process for Thermostat # 11       1 F T T   2.8146058156813852E-01        3161233422.0        2404453347.0        1673723662.0         906337025.0          73303549.0        1016746719.0        1683636369.0         362165168.0         814316280.0         869382050.0         980203903.0        2062101717.0        1683636369.0         362165168.0         814316280.0         869382050.0         980203903.0        2062101717.0
Wiener process for Thermostat # 12       1 F T T  -6.6211933450441895E-01         208754144.0        1983222026.0        1378772639.0         460703296.0         651350573.0        3898252829.0         272317999.0         166758548.0         310112982.0         201045826.0        1680231254.0         118290799.0         272317999.0         166758548.0         310112982.0         201045826.0        1680231254.0         118290799.0
Wiener process for Thermostat # 13       1 F T T   2.2418582236869027E-02         545702192.0         878923556.0         464381839.0        1267067492.0        3004786620.0        2258194530.0        2245755202.0        1652682525.0        2865544364.0         721509566.0         209733568.0         592362218.0        2245755202.0        1652682525.0        2865544364.0         721509566.0         209733568.0         592362218.0