 # Version information for this restart file 
 # current date 2022-11-29 18:09:30.892
 # current working dir /scratch/work/courses/CHEM-GA-2671-2022fa/tp2353/comp-lab/comp-lab-class/Week12/Runs/Protons
 # Program compiled at                              Sat Dec 12 18:27:15 EST 2020
 # Program compiled on                                         cs001.nyu.cluster
 # Program compiled for                                                nyu-intel
 # Source code revision number                                       git:8c64c6e
 &GLOBAL
   PRINT_LEVEL  LOW
   PROJECT_NAME proton_aimd_1ns_every0.5fs
   RUN_TYPE  MD
   WALLTIME 21600
 &END GLOBAL
 &MOTION
   &GEO_OPT
     OPTIMIZER  BFGS
     MAX_ITER  100
     MAX_DR     3.0000000000000001E-03
     &BFGS
     &END BFGS
   &END GEO_OPT
   &MD
     ENSEMBLE  NVT
     STEPS  2000
     TIMESTEP     4.9999999999999994E-01
     STEP_START_VAL  1000
     TIME_START_VAL     4.9999999999999636E+02
     ECONS_START_VAL    -1.1027507157744390E+03
     TEMPERATURE     3.0000000000000000E+02
     &THERMOSTAT
       TYPE  GLE
       REGION  MASSIVE
       &GLE
         NDIM  5
         A_SCALE     1.0000000000000000E+00
         A_LIST     1.8595758612559999E+02    2.7263853498399998E-01    1.1526100454610001E+01   -3.6414578262600003E+01 \
             2.3173375816020001E+02
         A_LIST    -2.7809524712060002E-01    8.5951591808710006E-05    7.2189048017650004E-01   -1.9844539343859999E-01 \
             4.2409257583420001E-01
         A_LIST    -1.4825808131210000E+01   -7.2189048017650004E-01    1.3590902121280000E+00    5.1498896280349999E+00 \
            -9.9949268450990001E+00
         A_LIST    -1.0372189126880000E+01    1.9844539343859999E-01   -5.1498896280349999E+00    2.6661910891169999E+01 \
             1.1507715495310000E+01
         A_LIST     2.1801346360420001E+02   -4.2409257583420001E-01    9.9949268450990001E+00   -1.1507715495310000E+01 \
             3.0958394565589998E+02
         &THERMOSTAT_ENERGY
               7.9557179102093421E-04
              -1.7223559398156145E-03
              -3.1550272795289936E-03
               5.8580074850151081E-04
              -1.1011155667250855E-02
               7.7623540796758833E-04
              -2.5039153652780966E-03
               3.2359048002275311E-05
               7.3691966559047695E-03
               5.1562789603178758E-03
               6.9859257096527164E-03
              -3.2061557731447080E-03
              -3.8565545840710258E-03
              -6.7290422740214862E-03
               5.7559101068694451E-03
              -7.7911810791947587E-03
               1.6686957694640565E-03
              -2.4128782444438864E-03
               5.6611104026731583E-03
              -1.0557850023858114E-03
               3.4951566038583532E-03
               5.4386665878144064E-05
              -4.5591469967186356E-03
               5.6808324638693672E-04
              -5.7581380374852531E-03
              -7.4116710576565574E-03
               1.5507151802385958E-03
               3.3350868243300332E-03
               2.1916220427750321E-03
               2.9337302061542402E-03
              -9.8568183796259503E-03
               1.4934560706743980E-03
               9.9073629780788951E-03
               1.0832160055381417E-03
              -1.3316424308897038E-02
               1.2165262687239442E-02
              -1.8802131514480866E-03
               9.8765775333269122E-04
               2.6554171734480257E-03
              -5.5039514981386770E-03
               4.3674309553730119E-03
               1.8140949635611185E-03
               4.5477396806047612E-03
               3.0964257126573753E-03
              -3.2855290504309629E-03
               2.3603130694474386E-04
              -4.8314314619688492E-03
               3.7237841754762812E-05
               9.6847075969883707E-04
              -6.1096470735247394E-03
               2.2420513081062845E-03
              -2.6027808689898426E-03
              -5.7302399785345510E-03
              -1.0864935271399307E-03
              -5.1261373297957595E-03
               1.7065491924027479E-03
              -5.2383397202015037E-04
              -2.2225743916960430E-03
               1.8694848803574771E-04
               5.6122530494746876E-03
              -2.4234529917165131E-03
               6.8891700381690040E-04
               1.0487175864170075E-02
               1.1745296590235902E-03
              -2.6862789162315909E-03
               4.1487955694037050E-03
               3.4803854197628858E-03
               4.5821952114759867E-03
               7.5533762574697188E-03
               1.6065825763665498E-03
               7.3386268604609802E-03
              -8.6818135797347967E-03
              -2.2913187878403317E-03
              -1.7067475002873057E-03
              -3.6576652792737942E-03
              -8.8817282806565173E-03
               8.1950115730853052E-03
              -2.1510102696389575E-03
               2.2576714274137729E-03
              -5.3845348099230044E-03
               6.4257444493357706E-03
              -2.3155207075163096E-03
              -8.0776225049662524E-04
               1.2516108214070352E-04
               4.0033318641622450E-03
               4.5891666218938225E-03
              -7.2709824476362228E-03
               4.0775049749068254E-03
               8.0286273678504515E-03
              -8.9541816957318891E-03
               2.2338370539425386E-03
              -7.6218218789135990E-03
               1.8553383248466383E-03
               2.4253150626522189E-03
              -9.8680875995522960E-03
               1.0924733846641060E-02
               9.0139428082881973E-03
               4.8889770368053601E-03
               4.6143641057001666E-03
               4.2978626805497784E-03
              -3.1385323738708651E-03
              -7.1751541271531070E-03
               1.1988607544119916E-03
              -4.8358176507062745E-03
               2.6326874399729434E-03
               7.3404854184075038E-05
               9.1595234915931873E-03
               1.7953799788427865E-03
               5.7099144241197384E-03
              -2.0721938603649680E-03
               1.1072387778692985E-03
              -2.4140128914918392E-03
               2.8866555245472408E-03
               7.2572175530175153E-03
               3.0005588059044261E-03
              -3.4522064652221687E-04
              -8.8728800477738887E-03
               2.9328879714121945E-03
              -7.9903557777184721E-04
               2.9915928133629394E-03
              -2.9437973069680323E-03
               2.4963720874552550E-03
               2.0531186867913703E-03
              -6.1528157672396553E-05
              -4.9892687345046653E-03
              -7.6059245723460204E-03
               4.2181894509262362E-03
              -1.9038539938664289E-03
               9.7653182632077276E-04
              -9.5647148728434227E-03
              -6.1543125970311974E-03
               1.0643400174359699E-02
               2.6855710092422496E-03
               2.3010618268861673E-03
              -2.5440203497216090E-03
               2.9139131550905868E-03
              -2.8386657272617489E-04
              -1.3771355320493274E-03
              -3.8571233800223518E-03
              -1.0926779901778589E-02
               5.2235307307142524E-04
               9.6903803749845453E-03
               1.2222689796681405E-02
              -9.6040730865081421E-03
              -3.0152636370850091E-04
               2.8607407020508919E-03
               8.0770167816317257E-03
               5.9866384694368486E-03
               2.0474872268658804E-03
              -3.9756726986394072E-03
              -6.3504611688959423E-03
               6.2422102646467774E-03
               3.9344427014696278E-03
               1.3311836352004551E-03
               1.1600016145161607E-04
               7.1614419747160563E-04
               2.3668696177462055E-03
              -7.2216764047019254E-03
              -4.0923216283827680E-03
               8.6736906933757296E-03
              -2.2593679490160693E-03
              -1.4026267314067233E-03
              -1.6241337654082577E-03
              -3.1088595615727505E-04
               2.4977675501923913E-03
               9.7803227298014234E-03
               4.2189324927650613E-03
              -7.6715448343264766E-03
              -5.6604549468089876E-03
              -1.7211019082900489E-04
               1.8697375618842754E-03
               7.6607037752806978E-05
               3.8363586383459471E-03
              -3.9508480536514980E-03
               3.2555729715670070E-02
               4.1108741112083702E-03
               2.0524585717189566E-02
               2.3204748659590049E-03
              -4.0355129052925248E-03
               4.1592436363058517E-03
               6.1325564434839214E-03
              -1.0813516651827574E-04
               1.2040944508528153E-02
              -7.3301513402857666E-03
               4.1406754108320152E-04
              -4.1569185760241014E-04
               6.8914423956406333E-03
              -7.8107762058155384E-04
              -1.3969164508422802E-03
              -3.2089455011540141E-03
              -7.0056755980877901E-04
               3.8443057926262915E-03
               1.1238858964924270E-03
              -4.1257987120217870E-04
               2.1205894799655018E-03
               6.2762826269723597E-03
              -7.7537366068839170E-03
               1.1346206511293659E-03
               4.1929400987033355E-03
              -6.9087393843861563E-03
               2.1516178682856242E-03
               2.3879409533769536E-03
               8.5570051978522206E-04
               3.1997905049874239E-03
              -2.1275234637464428E-03
              -8.4809122454236156E-03
               2.3462843014465562E-03
               8.4557068369233573E-03
              -5.3242171120189254E-03
               8.4067004187485164E-03
              -5.8933081787415900E-03
               1.0282823027005549E-03
               4.1021040489886956E-03
               2.2801160170870679E-03
              -1.0393219694725659E-02
               8.0508725036223421E-04
              -4.5621855557944935E-04
               4.6550462795333074E-03
               1.8456979389417383E-03
               5.4901107314596917E-03
               2.1669597910464839E-03
              -1.4162485663380439E-03
              -9.5466083518752874E-03
               4.6107112553153869E-03
               2.2437018535854247E-04
              -6.9755450662037789E-04
               4.9169282667990682E-03
               2.0361897045348626E-03
              -3.3221663826502662E-03
              -3.0336858907096509E-03
              -5.1356627979334026E-03
               1.8417754516376562E-03
               1.0588366101575132E-02
              -3.7778313097595489E-03
              -3.9130294085971927E-03
              -5.5042454227855250E-03
               1.2701322942028517E-03
               3.4588699398548032E-03
              -2.5080790314419730E-03
              -3.8101805842097959E-04
               8.5552791651684465E-04
               2.8853063812672233E-03
               1.2803889817786752E-03
               5.1326403601553335E-03
              -2.6026721748173740E-03
               2.8660086999751002E-03
              -2.5318042854470010E-03
              -5.7616743969170919E-04
              -1.8912525944766452E-03
              -7.8114616398166845E-04
               3.4180310331840169E-03
               1.2957837535584296E-03
              -5.5496268116859340E-03
              -6.7656352272186821E-05
               2.2612747396474602E-03
              -2.4822305273938718E-03
              -2.5786722780222378E-03
              -1.5100578559503793E-03
              -5.6890014801651654E-03
              -3.2406028193843244E-04
               7.2776386011937713E-03
               4.2487406716332620E-03
               6.8581070031290504E-03
               8.1963023873582881E-05
               2.7096920233381028E-03
              -2.8467723154745802E-04
              -9.0543782913876918E-04
              -4.8437727395829258E-03
              -2.0666290939997745E-03
               3.9626453914499886E-03
              -1.0851682007964132E-03
              -7.4885393470062196E-03
               4.9546195411885700E-03
               4.0133019132650022E-03
              -5.5923784907176447E-04
              -4.4884099824026724E-04
              -7.7608910029464380E-03
               8.5000377588779191E-03
               1.1408847179555568E-03
               9.4373163359633659E-04
               2.6148574703639747E-03
              -1.0052489808757866E-02
               1.4814142028845418E-03
               1.0127410160388347E-02
               6.9790494285549070E-03
               2.2196066189187377E-03
              -6.0776228720461241E-03
               4.7240897382708625E-04
              -1.1630690262217818E-02
               1.2339325291939436E-02
               9.5481365288397329E-03
              -2.7084433217937970E-03
               6.5870750737635926E-04
               3.4407597678583024E-03
               4.7409488323693167E-03
               1.4074073217966174E-03
              -4.6293221915547685E-03
               6.9046029951728245E-03
               5.5839179462857233E-03
              -1.0577502506993113E-02
               6.1640882645377709E-04
               1.9924369952973686E-03
               4.4819003685303603E-03
               6.1490956979437256E-03
               4.0701446349223815E-03
              -4.4703987077630005E-03
              -3.0911614648347413E-03
              -1.4460184114507363E-02
               8.1368283942131071E-03
               6.4042348100417498E-03
              -1.1354764603557421E-03
              -4.2844508253099675E-03
               1.7720410709654941E-03
               3.4236041901895345E-03
               1.9430941988507035E-03
               9.4039852181404028E-05
               2.6500244092208863E-04
              -7.5703873532575955E-03
              -5.4903845569770834E-03
              -1.0519703827740234E-03
               3.9036816553357045E-03
              -3.9231480964472872E-03
               2.3916698657075941E-03
              -4.3977040900432978E-04
              -1.2710632241688747E-03
               3.1055908769372967E-03
               2.6601780446224230E-03
               2.3172573544964661E-03
               3.5433341571340328E-03
               1.2980582577340617E-03
              -5.8945880614888757E-03
              -1.8056493113802517E-04
               2.0845571284831173E-03
              -2.2013778073925161E-03
              -2.4097425940427558E-03
              -4.0498892536361603E-04
               4.4924778421390095E-03
               6.3799779430997192E-04
              -8.6412708612191419E-04
               2.9609085475970072E-03
              -2.6258922797273020E-03
              -2.8697345086693433E-03
               6.8987180234607202E-03
              -8.8960495825256302E-04
               5.9726720738051539E-03
               3.4568833987279114E-03
               3.3416214208455020E-03
              -7.0779360426418692E-03
               6.5005223165600055E-03
               2.0268865848856957E-03
              -1.7635172939560117E-03
               4.5064570728775653E-03
              -6.4892194422987229E-03
               8.7600644638706341E-04
              -2.7465200809924720E-03
              -5.1189446176819822E-03
              -3.2778505910003799E-04
               4.5167501289620181E-03
              -7.1193935761644615E-03
               1.0566557827940712E-03
               3.2099774637273803E-04
               2.8095440685872884E-03
               5.3298513921862783E-03
               3.5304739595691964E-03
               3.1783219822967962E-04
               1.9861362813570205E-03
               1.6892962724286007E-02
               1.4456132981201541E-03
              -1.5750805590603694E-02
              -7.4641712793273385E-03
               5.4026265240111320E-03
               2.2019515641323924E-03
               1.2768069615997236E-04
               8.0699797012784671E-04
               9.1887889519520240E-05
              -2.8680844946711651E-03
              -8.5221474032062105E-03
              -3.9556678279398802E-03
              -2.6620287257002177E-03
               7.3313073726658439E-03
               4.1864821210725479E-03
               1.3844733351602765E-03
               8.5566257257931944E-04
              -5.2768854525314765E-04
              -1.0548174401419507E-02
               8.6861166991082281E-04
               1.3340700289931791E-03
               4.6706044776906276E-03
              -2.6030990381485705E-03
               3.4645008041917424E-03
              -3.3992708597648893E-03
               4.2113042667883682E-03
              -2.2715832650054583E-03
              -8.1717687228380961E-03
               1.2603242977859773E-02
              -4.2623041346498804E-03
              -2.8877740609649719E-03
              -4.2351737789758323E-04
               2.1335224630654455E-03
               6.0623014856976129E-05
              -3.0154427808196083E-03
               1.5057135403640448E-03
              -3.1454188833698617E-03
              -2.2108645162174107E-03
               5.2778498197980344E-03
              -1.2940304786024279E-03
               3.5626807669849871E-04
              -1.0563038594590154E-03
              -3.4450165114874500E-03
               4.5280304339435059E-03
               1.7609212065395879E-03
               9.6044286650648000E-04
              -3.4616955312403346E-03
              -3.4559429981823367E-03
               2.3738304845242119E-03
               3.9234398808383059E-03
              -1.3730017506458699E-04
               4.0547778059325038E-03
              -1.6367736730644356E-03
              -1.8487919120525388E-04
              -4.9900140188426632E-04
               4.1439646366912819E-04
              -1.9520713186997188E-03
              -5.1425430975748062E-03
               8.2195999708397083E-03
               5.1507924937676012E-04
               1.9353501056987451E-03
              -5.3766963492496451E-03
              -1.6314558647637183E-03
               5.5265869629415459E-03
              -2.3669850326421150E-03
              -3.0132954303398263E-03
              -6.0175795112896221E-03
               1.8596811073882764E-03
               7.2713580101936258E-03
               4.6214326376046947E-03
              -2.4067011976057584E-03
              -1.7395217557666391E-03
              -4.0696078070032361E-04
              -1.5791852046382056E-03
               4.9887348898827819E-03
              -3.2288167046854526E-03
               1.3316731707314717E-03
               5.6612286797151946E-03
               4.5968729187676523E-04
               5.9833192988158913E-03
               6.7873272267885802E-03
               5.4335398385007656E-03
               3.8836026131179326E-03
              -9.8487661821296847E-03
              -3.6344557234066904E-03
              -5.3573099705846528E-03
               5.7047384338822617E-03
              -2.4946773994715071E-04
               2.0578832975915650E-03
              -4.2400837339075263E-03
              -4.7953697248707336E-03
               5.4182289531579672E-04
              -6.4445904305174056E-03
              -3.5337093322277552E-03
               1.0584104611829671E-02
               1.0519032017131011E-02
              -1.0818367618677456E-03
               6.2824944331651535E-03
               6.4237008592041402E-03
               5.5938993562122171E-03
              -7.9575251204676723E-03
              -3.9425757751143072E-03
               7.7820864353728874E-04
               1.5455873783420523E-03
               1.2069004710225718E-03
              -4.1480237020130551E-04
               8.3091449405239316E-04
              -1.3827355238998375E-03
              -4.0521736691943198E-03
               4.0261006545559454E-03
              -1.3353433711706195E-03
              -2.2114433491265046E-03
              -1.7546324621844844E-03
               1.3548833860613463E-04
              -1.5184787557530892E-03
              -1.3687709067367894E-03
               2.9804022148048328E-03
               8.2781522778809843E-03
               1.6456790027977192E-03
              -5.1929882334031388E-03
              -2.1416733943499795E-03
              -1.5962955299726050E-03
               2.0778856393827397E-03
              -5.3460650798640714E-04
               6.1592622350270239E-04
               6.7061457817499054E-03
               5.2375858931387213E-03
              -6.6713001454575174E-03
               3.3943495247362983E-03
              -7.3296703728622885E-04
               4.3977965799106627E-03
               2.5662716220903529E-03
               3.5863962508053968E-03
               3.2918748235159843E-03
              -1.6392851101424231E-03
              -6.9561341542449112E-04
              -1.2791880555507715E-02
               1.9969184085221817E-02
              -3.2243579889556029E-03
              -7.2048008757271314E-03
              -3.6559489900422652E-03
               6.9344572006554131E-03
               2.7140070893100984E-03
               9.6180531401843575E-04
              -2.0798385920550630E-03
               4.7176834498001402E-04
              -3.4475228555799174E-03
              -1.0584755139280907E-02
               1.1639580018172174E-02
              -8.0837128547805569E-03
              -4.2998216265509341E-03
               3.8204749337271003E-03
               4.9122560807109816E-03
               2.5001064463146265E-03
              -1.3971655041644585E-02
               8.4679929761588019E-03
               7.7004407056484479E-03
              -9.6995722195740474E-04
              -1.4557499777515886E-03
               3.4849781128977681E-03
              -1.2481566179086030E-03
              -3.6100186244691679E-04
               1.0836318952212932E-03
               3.9741422782314240E-03
               9.1136958734453714E-03
               4.6538498334232261E-04
              -6.2943507556747231E-03
              -2.9953192248811165E-03
               3.1349390726287123E-03
              -2.1204322188083644E-03
               1.1810253086580404E-03
              -2.3415782843841824E-03
              -1.6341176452419658E-03
               8.5280104141910798E-03
              -1.7436422796166379E-03
              -2.1678590009337035E-03
              -6.8187066168897657E-03
               1.8764655439163346E-03
               2.7225767079846783E-03
              -2.6998580220516166E-04
               2.7231599964287205E-03
              -2.5528729736764666E-03
               9.7730097277582903E-03
               3.8967771843422057E-03
              -8.5747876638109892E-03
              -3.1851720260715091E-03
              -1.9609618169923158E-04
              -2.1260157006746877E-03
              -1.3439791170388564E-03
              -7.2861370142943583E-04
              -2.6279256219135681E-03
              -5.6225066466404220E-03
               8.9273719971835457E-03
               1.2282502903851644E-03
               5.3279889652385771E-03
               1.5925566956363491E-03
              -2.2549797020658411E-03
              -8.4341986931416100E-04
              -2.6927126504334405E-03
               7.4797483146373843E-03
              -7.8328895404420201E-03
              -3.2234980943962664E-03
               3.3621723811403780E-03
              -2.8932615982754763E-03
              -2.2772921204712222E-03
              -4.3455733805700721E-03
              -2.7751705791175555E-03
              -5.6237811348357368E-03
               5.6592809046435034E-03
               4.9807014119081019E-03
               1.0465933681894989E-02
               6.8835437682287347E-03
              -6.0386146387266127E-03
         &END THERMOSTAT_ENERGY
         &RNG_INIT
Wiener process for Thermostat # 1        1 F T T  -9.8236738167888460E-01         226733040.0        4248387519.0        1164353849.0        2758509449.0        3644127687.0        1764793484.0             12345.0             12345.0             12345.0             12345.0             12345.0             12345.0             12345.0             12345.0             12345.0             12345.0             12345.0             12345.0
Wiener process for Thermostat # 2        1 F T T  -1.4171306107827426E+00        1528154308.0        2775625301.0         197130159.0        1452211673.0        1835562137.0        1983376171.0        3692455944.0        1366884236.0        2968912127.0         335948734.0        4161675175.0         475798818.0        3692455944.0        1366884236.0        2968912127.0         335948734.0        4161675175.0         475798818.0
Wiener process for Thermostat # 3        1 F T T   8.6049543281786645E-01        2248570378.0        1724762616.0          52903713.0        3229622658.0        3199004837.0        4241126217.0        1015873554.0        1310354410.0        2249465273.0         994084013.0        2912484720.0        3876682925.0        1015873554.0        1310354410.0        2249465273.0         994084013.0        2912484720.0        3876682925.0
Wiener process for Thermostat # 4        1 F T T  -1.5460863137690717E+00         957380376.0         510326667.0        2247033635.0        2033071685.0        3054261466.0        3462352516.0        2338701263.0        1119171942.0        2570676563.0         317077452.0        3194180850.0         618832124.0        2338701263.0        1119171942.0        2570676563.0         317077452.0        3194180850.0         618832124.0
Wiener process for Thermostat # 5        1 F T T   1.5428690481661575E-01        4203301200.0         738999836.0        1485820986.0          20648636.0        2223680357.0        4294941489.0        1597262096.0        3906379055.0        3312112953.0        1016013135.0        4099474108.0         275305423.0        1597262096.0        3906379055.0        3312112953.0        1016013135.0        4099474108.0         275305423.0
Wiener process for Thermostat # 6        1 F T T   7.0411917217518150E-01        1265311014.0        3687607523.0        1792102642.0         142025920.0         459804801.0        1211121065.0          97147054.0        3131372450.0         829345164.0        3691032523.0        3006063034.0        4259826321.0          97147054.0        3131372450.0         829345164.0        3691032523.0        3006063034.0        4259826321.0
Wiener process for Thermostat # 7        1 F T T  -9.5744195640119531E-02        4040223344.0        4246262317.0         329086624.0          28777921.0        2946509694.0        1489700490.0         796079799.0        2105258207.0         955365076.0        2923159030.0        4116632677.0        3067683584.0         796079799.0        2105258207.0         955365076.0        2923159030.0        4116632677.0        3067683584.0
Wiener process for Thermostat # 8        1 F T T  -1.2413826789147817E-01         252045112.0        2848200345.0         154646410.0        1271924195.0        1873079261.0        3351978939.0        3281794178.0        2616230133.0        1457051261.0        2762791137.0        2480527362.0        2282316169.0        3281794178.0        2616230133.0        1457051261.0        2762791137.0        2480527362.0        2282316169.0
Wiener process for Thermostat # 9        1 F T T   1.0331244080464512E+00        3784506675.0        1914172684.0        3527875272.0        1610827989.0        3855196701.0        1117597481.0        3777646647.0        1837464056.0        4204654757.0         664239048.0        4190510072.0        2959195122.0        3777646647.0        1837464056.0        4204654757.0         664239048.0        4190510072.0        2959195122.0
Wiener process for Thermostat # 10       1 F T T   2.1466585360569199E-01        3057685686.0        2869029583.0         411221469.0        2821893460.0         322924656.0        1143227575.0        4215590817.0        3862461878.0        1087200967.0        1544910132.0         936383720.0        1611370123.0        4215590817.0        3862461878.0        1087200967.0        1544910132.0         936383720.0        1611370123.0
Wiener process for Thermostat # 11       1 F T T  -4.4132046785776799E-02        1554543736.0        2717576499.0        4135075403.0        2618383353.0         642871762.0         249586537.0        1683636369.0         362165168.0         814316280.0         869382050.0         980203903.0        2062101717.0        1683636369.0         362165168.0         814316280.0         869382050.0         980203903.0        2062101717.0
Wiener process for Thermostat # 12       1 F T T  -5.6161533877704317E-01        1770324141.0        3770017049.0         190859559.0         764828178.0        2918138424.0         736540625.0         272317999.0         166758548.0         310112982.0         201045826.0        1680231254.0         118290799.0         272317999.0         166758548.0         310112982.0         201045826.0        1680231254.0         118290799.0
Wiener process for Thermostat # 13       1 F T T   9.7554409384929153E-01        3627045108.0        1898589428.0        2752141753.0          85759421.0        2499273175.0        1137986601.0        2245755202.0        1652682525.0        2865544364.0         721509566.0         209733568.0         592362218.0        2245755202.0        1652682525.0        2865544364.0         721509566.0         209733568.0         592362218.0