 # Version information for this restart file 
 # current date 2022-11-29 20:49:04.542
 # current working dir /scratch/work/courses/CHEM-GA-2671-2022fa/tp2353/comp-lab/comp-lab-class/Week12/Runs/Protons
 # Program compiled at                              Sat Dec 12 18:27:15 EST 2020
 # Program compiled on                                         cs001.nyu.cluster
 # Program compiled for                                                nyu-intel
 # Source code revision number                                       git:8c64c6e
 &GLOBAL
   PRINT_LEVEL  LOW
   PROJECT_NAME proton_aimd_1ns_every0.5fs
   RUN_TYPE  MD
   WALLTIME 21600
 &END GLOBAL
 &MOTION
   &GEO_OPT
     OPTIMIZER  BFGS
     MAX_ITER  100
     MAX_DR     3.0000000000000001E-03
     &BFGS
     &END BFGS
   &END GEO_OPT
   &MD
     ENSEMBLE  NVT
     STEPS  2000
     TIMESTEP     4.9999999999999994E-01
     STEP_START_VAL  1997
     TIME_START_VAL     9.9849999999998249E+02
     ECONS_START_VAL    -1.1027507157744390E+03
     TEMPERATURE     3.0000000000000000E+02
     &THERMOSTAT
       TYPE  GLE
       REGION  MASSIVE
       &GLE
         NDIM  5
         A_SCALE     1.0000000000000000E+00
         A_LIST     1.8595758612559999E+02    2.7263853498399998E-01    1.1526100454610001E+01   -3.6414578262600003E+01 \
             2.3173375816020001E+02
         A_LIST    -2.7809524712060002E-01    8.5951591808710006E-05    7.2189048017650004E-01   -1.9844539343859999E-01 \
             4.2409257583420001E-01
         A_LIST    -1.4825808131210000E+01   -7.2189048017650004E-01    1.3590902121280000E+00    5.1498896280349999E+00 \
            -9.9949268450990001E+00
         A_LIST    -1.0372189126880000E+01    1.9844539343859999E-01   -5.1498896280349999E+00    2.6661910891169999E+01 \
             1.1507715495310000E+01
         A_LIST     2.1801346360420001E+02   -4.2409257583420001E-01    9.9949268450990001E+00   -1.1507715495310000E+01 \
             3.0958394565589998E+02
         &THERMOSTAT_ENERGY
               1.1123280480533095E-03
              -2.6426063050708935E-03
              -3.3331429270258527E-03
              -3.3238811354873018E-04
              -2.0499460175393783E-02
               1.4354925367762810E-03
              -7.3692415999031917E-03
               1.0269349732311332E-03
               5.2225355095178753E-03
               1.2876771598880144E-03
               7.1703073862761394E-03
               4.4767310088384953E-03
              -7.9759523553698062E-03
              -2.8457291932647800E-03
               7.2218095732415133E-03
              -3.9040003192280541E-03
               3.5934245344628598E-03
              -6.6001575797852209E-04
               3.8001377689859408E-03
               9.8197733821824246E-04
               5.2005602671856375E-04
               9.8981583215063725E-03
              -8.6894962855349079E-03
              -1.1006032140308958E-02
               8.2943930499623352E-05
              -5.5113577908674164E-03
              -1.5444260995101029E-03
              -2.5097975632739694E-03
               2.5846113118698183E-03
               3.9698396619669970E-03
              -3.2449383885355763E-03
               2.7667750685263070E-03
               8.3868647353405202E-03
              -1.1125295344483125E-04
               1.0858400593211535E-03
               8.8354210003627788E-03
               2.8930114797512813E-03
              -2.3291669964883460E-03
               1.4685385005720015E-03
              -1.9736082845757592E-03
               7.9762446348980321E-03
              -9.4229630241182659E-03
               6.5649085036348521E-03
               2.8545579103089916E-03
               5.8605564918268755E-03
               2.7170461039612800E-03
              -5.9616605580112871E-03
              -1.0558335676699900E-03
               1.9127518932765743E-03
              -2.5124780125661459E-03
              -4.0882713226758922E-03
               9.3959372241819959E-03
              -8.1357959394078323E-03
              -9.8069034700534047E-03
              -9.2760695571583972E-03
               2.5324669068131434E-03
               1.6227059308567538E-03
              -1.1053793302181992E-02
              -1.6974141219278948E-03
               1.1928953846986988E-02
              -7.5907938340023925E-04
              -5.6281639605433118E-03
               1.9562327650614941E-02
               6.3117675458495496E-04
              -3.5117592853749608E-03
               5.3928568487538195E-03
              -7.2560806207302032E-04
               1.0048743441922952E-02
               1.7862513117709301E-02
              -3.3382377810542698E-03
              -3.8365544003674617E-03
              -5.5941303090003072E-03
              -2.4875211920425194E-03
               1.4011401698505309E-03
              -3.5942054739152014E-03
              -1.2747719694423048E-02
               8.3438978907139152E-03
              -2.1216251124573336E-04
              -1.8152052960019312E-03
              -3.6571876667014086E-03
               8.9250344520572147E-03
              -5.7948508516736108E-03
               1.6706330212383665E-03
              -1.2368281497695385E-03
               1.0347432275380733E-03
               1.0778623424370453E-02
              -6.5969535161459715E-03
              -9.0740781493414881E-03
               1.1263010543686796E-02
              -1.1197730121642156E-02
               2.9059397374851109E-04
              -7.9026099025107516E-03
               2.3454414717457165E-04
              -1.9408247516335148E-03
              -4.6207674172729120E-03
               8.7529320580176755E-03
               4.8300853158435297E-03
               5.0991843150544657E-03
               1.0721250345506675E-02
               3.5668217584917151E-03
              -4.4841455855137956E-03
              -2.6314328139179525E-03
               2.7291665449136367E-03
              -3.7398281258780959E-03
              -2.0994869087118313E-03
               1.4006523074592795E-02
               8.9108036929015366E-03
               5.0041790275711197E-04
               9.4980508266362153E-03
              -4.5730882789606908E-03
              -2.9783190478762100E-03
               1.4570593347305431E-03
               1.1072154381431016E-02
              -4.7818630789737146E-03
               5.9297596731001309E-03
              -7.6387194010054218E-04
              -1.1914577565320571E-02
               5.6499358310986515E-04
               2.2253269072811102E-03
               2.7696795815455944E-03
              -9.0430513290223856E-03
              -2.7174388470695647E-04
               1.1987412015690051E-02
              -2.3467718642006525E-03
              -6.2388245788743317E-03
              -1.3555891934454160E-02
               8.4739060891749346E-03
               9.3828113073256671E-04
              -3.4842520152463044E-03
               5.3024490753478849E-03
              -1.0516298239089547E-02
               6.5365982243181667E-03
               2.5537276139265565E-04
              -2.1906597191527232E-03
               6.7868634835599202E-04
               5.8557936721689166E-03
              -1.3274515785789730E-03
              -4.2601229720720451E-03
              -1.0267001198002949E-02
               2.6002169916963438E-03
              -7.5206488220025186E-03
               1.1619417299242355E-02
               1.8517958758581296E-02
              -9.6081884235934140E-03
               7.3268756923358215E-03
              -5.6863409093281707E-03
               8.6612954851774046E-03
               1.1590693165362114E-02
              -3.4100941945522040E-03
              -6.2283787366167421E-03
              -1.4025071072779017E-02
               6.7693719777078051E-03
              -2.5733706685181013E-03
               5.2603095047276524E-03
               7.3221787837334440E-03
              -1.4165453069503898E-03
              -2.0416799836759799E-03
              -2.5981559005740298E-03
              -1.4755765423420164E-02
               7.0703618829486290E-03
              -9.3820916539919636E-04
              -2.7915505523918764E-03
               2.2746560712110782E-03
              -9.5814540073853359E-04
               9.8180022789956193E-03
               1.9117668047690578E-02
               5.0636815731486045E-03
              -3.0725115972230189E-02
               4.7299900542005719E-03
               6.7726313457506142E-03
              -5.9919551414105996E-03
               4.8298387401839225E-04
               2.5080774344193100E-03
              -1.5651759976171497E-03
               2.7394290772405280E-02
               6.4847504767773165E-03
               1.7552633909006982E-02
               3.5689124205854593E-03
              -1.3263301187343795E-02
               8.0503344044353456E-03
               1.3412708909965878E-02
               1.2032508911958468E-03
               1.6242774433981422E-02
              -8.3230534772381990E-03
              -1.4979550138580639E-05
               1.5323102068267897E-04
               1.4538468445398750E-02
               1.0946684154544374E-03
              -8.3140835251217654E-03
               5.8680068605489188E-03
              -9.3180370892189477E-03
              -7.6081168415300889E-04
               3.1992282394380008E-03
              -2.3378023146548858E-03
               1.9905429207937499E-03
               3.4757006457880866E-03
               7.4128160845753424E-04
               1.6120949133662872E-03
              -9.9831390371480505E-03
               4.4991680598832221E-03
               8.3854694281613306E-03
              -1.7864630268508053E-04
               1.1442803055459769E-03
               6.1573960445696456E-03
              -3.7232276870609615E-03
              -1.2619606448305235E-02
               9.5301887994950815E-03
               7.5447264942366792E-03
              -8.8375803033767641E-03
               1.5436607485366077E-02
               1.2521684579311727E-03
              -2.4885738597484881E-03
              -1.2704298559863569E-03
               8.2177348679648276E-03
              -5.0064587347016191E-03
               4.0797292889764095E-03
              -7.9904798991398528E-03
               7.5302134675050677E-03
              -3.7963689885843147E-03
               7.3779730599932564E-03
              -7.7441171679255220E-04
              -8.3797163406378137E-04
              -1.6615697379872424E-02
               6.8314196474624231E-03
               7.8356013684415041E-03
              -2.5331307133984282E-03
              -8.9207335312148812E-03
               5.8917623727397228E-03
              -4.7970717693797507E-04
               5.1226924739801742E-04
              -8.8570398454338329E-03
               5.7206833921404619E-04
               1.0000901195268854E-02
              -5.3028341795774434E-03
              -3.1785663198160867E-03
              -1.1763296626961985E-02
               1.1621749701084632E-03
               3.5723747039040827E-03
              -3.4906319300983065E-04
              -7.2720292484264272E-04
               7.0256974798533437E-03
               1.0330798769911342E-02
              -2.7772039118150192E-04
              -4.6250816313309052E-04
              -1.8412976640733859E-03
               1.1137392788851520E-03
              -6.7212600717356545E-04
               6.8395174466668431E-03
               1.8382704459563800E-03
              -5.6722851287567900E-03
               1.1248103223900395E-02
              -2.6671194658943242E-04
              -7.2084991475474345E-03
              -1.7673198130102964E-02
               7.9942034191588032E-03
              -4.3541043287081815E-03
              -2.0168102438287128E-03
               1.9443033060435500E-03
              -4.9932468982935218E-03
              -6.6771823508751064E-04
               5.8762579185249316E-03
               9.7228991591299576E-03
              -3.1317590618956197E-03
              -1.2693721855704305E-03
              -4.1894769824479437E-04
              -4.2630098145540109E-03
              -4.8174096388281977E-03
              -5.5805526983681072E-03
              -2.2448159946984398E-03
               9.0435265577766561E-03
               7.4103849091002663E-03
              -1.1824603592627035E-02
               3.4158721342288090E-03
               8.9382948671738495E-03
               2.0535224821562172E-03
              -1.1306779801477825E-03
              -1.2064789940199867E-02
               1.9237653696779957E-02
              -2.2692087617590742E-03
               1.1418230694040781E-02
              -1.0825987105193743E-02
              -9.8472818030294011E-03
              -1.3322578869530014E-03
               1.2749569919857243E-02
               7.8132812270836037E-03
               1.7315877653203071E-03
              -4.0857247295448488E-03
              -1.6564088141835759E-03
              -1.5183203171153077E-02
               6.6654432701192760E-03
               2.2870433542682631E-02
              -4.3518377680010758E-03
              -2.9103258471391835E-03
              -2.9099110433117186E-03
               1.6553600996769943E-02
              -5.5804562862401801E-03
              -1.2830858930891533E-02
               2.0458142886571239E-02
               1.4211581698324921E-02
              -1.8332076356725846E-02
               3.5185538724364458E-03
              -1.4782228478234650E-03
               1.9347158091927072E-03
               1.6634648199982727E-02
               2.8676481780310708E-03
              -1.0672408146173451E-02
              -7.4746926553804320E-03
              -6.9273882196404860E-03
               1.5150993628305543E-02
               7.1844926772350456E-03
               3.6953578636381179E-04
              -3.6976569852867187E-03
              -1.3773670449657987E-03
               4.4070394510327179E-03
               6.4718484066036922E-03
              -3.9188582544194611E-03
              -8.8099832696176134E-03
               3.4560782999845598E-03
              -1.4672089124914741E-02
              -6.4054049030622009E-04
               4.9791064712285454E-03
               2.1627640606732817E-03
               1.8962685585995878E-03
               6.7794171879932081E-03
              -1.1351593725719176E-02
               1.3089588734898246E-02
               6.1714331176551240E-04
               7.3621883393378221E-03
              -5.3563776443856773E-04
               3.1320756671195751E-03
              -1.3971700109769329E-02
               4.4402500112381595E-03
               3.4028947197730260E-03
              -7.4930167265770840E-03
               8.5669776092495362E-03
              -6.3047401785800055E-03
               3.1600538731821151E-03
               1.2368361348099586E-03
               3.6798558459331275E-03
              -8.1034050180600354E-04
              -1.4858761054834810E-03
              -5.4536101540923190E-03
               3.7790774333065682E-03
              -9.3890067101523556E-04
               3.6411390946010295E-03
               2.2324932896421990E-03
               7.3301759904014956E-03
              -9.5838252267013094E-03
               8.7899828728915490E-03
              -4.3302139608388523E-03
              -3.2417248257529068E-05
               5.1033984949795455E-03
              -9.1843525023804252E-03
               4.0829310360501975E-04
              -8.5949629601994441E-04
              -4.2999575516772560E-03
               9.2802718114422841E-04
              -6.3102104670661862E-03
              -1.1851432552454666E-02
               3.6276219730025268E-03
               4.4858186559518813E-03
              -1.1835298246389778E-02
               2.1519261219957554E-02
              -2.7820787550124331E-03
              -3.2500537269291724E-03
               1.2766531298846761E-03
               1.6945379442447686E-02
               1.8994772016738091E-03
              -1.4491946288964530E-02
              -1.7856322466636666E-03
               6.2004412541014561E-03
               2.0015288628562333E-03
              -1.0939359100309665E-03
              -3.1659213226577021E-03
               4.3731294351434958E-03
               4.0616032773037811E-03
              -7.4013379967235050E-03
              -1.4572008926193088E-02
               3.3788671382949899E-03
               7.7366168755778047E-03
               4.8242316136584244E-03
               7.0251032601081412E-03
              -3.4577028761043540E-03
              -3.3985628626296825E-03
              -1.7053831185851270E-02
               2.4171945589626441E-03
               3.6650973455771385E-03
               3.8682835750292898E-04
               2.0297766549877646E-03
               2.9364155524754438E-03
              -1.1019854025032040E-02
               6.7714038804486268E-03
               2.0213505494631650E-03
              -6.1744668981561553E-03
               1.7373146922725652E-02
              -1.7994753932730283E-03
              -8.4074714419986232E-05
              -9.5863145331270393E-03
               2.2426239964628289E-04
              -1.6577109010595907E-05
              -1.3904709507148733E-05
               2.7331121268065620E-03
               4.6687542212173160E-03
              -1.1694745523404319E-02
              -3.7646885919071958E-04
              -1.3970504282283788E-02
              -9.0125547246317959E-04
               6.4248322007294262E-03
              -2.9135618692067980E-03
               3.4212237662563558E-03
               5.1701545109303759E-03
              -1.1548828655650928E-03
              -3.5915457674501072E-03
              -6.3921736456279696E-03
               5.6150248726780745E-03
               1.5874580408388309E-03
              -5.1038994594271190E-03
               2.9461517426852416E-03
               8.9386006213215891E-04
              -3.5500758589703282E-03
               5.5965499086730874E-03
              -1.9095639232107492E-04
              -4.5917910535689188E-03
              -7.1242177743282486E-03
               9.2021457436345516E-03
              -3.8394092503018511E-03
               7.3394549281959411E-04
              -8.9883236838822402E-03
              -3.6166259415746776E-03
               3.9833077050206887E-03
              -4.8138054103503379E-03
              -3.4369094906522447E-03
              -1.4605572894775168E-02
               1.2067332798129210E-02
               8.4819931832228017E-03
               5.0291361832837571E-04
               4.3301907313105740E-04
              -1.1422324284516460E-04
               1.2087883705160545E-02
              -2.5267156138858654E-03
              -9.6748222122782120E-04
              -8.8192901297971735E-03
               7.7593739713925527E-04
               1.0753849982674184E-02
               1.8052870268468243E-03
               6.7626804707020850E-03
               5.9193469594472680E-03
               1.1990392260318604E-02
               7.3362585464444904E-03
              -1.1922246154726901E-02
              -4.7128533998791172E-03
              -1.3732424821938314E-02
               5.5189349633817794E-03
               2.3139602261665624E-03
               4.9211842284065301E-03
              -5.6049343423715692E-03
              -1.0158753032272238E-02
              -6.1992413460719127E-03
              -5.5769672217712545E-03
              -3.9951275979827365E-03
               1.5829450690114301E-02
               4.9040002190075859E-03
              -4.4272336454986259E-03
               6.0830817852396898E-03
               2.3524284430860268E-03
              -2.3005275353888644E-03
              -1.3515765808817038E-02
               6.3293921792549786E-03
               9.4479620177124694E-03
              -6.7115298080850780E-03
               4.1022052822628522E-03
              -6.1422006328515329E-03
               2.6781827859809399E-03
               3.1752651755286875E-03
              -7.4690268205148550E-03
               1.3150766373244948E-02
              -2.8327757220128458E-03
               4.2763247857835274E-03
              -6.7383092530607655E-03
              -4.0612592571357582E-03
              -6.5406078271416316E-03
              -4.1714021310872412E-03
               4.5333670725805353E-03
               1.0331885578959405E-02
              -4.6571759272592715E-03
              -6.4033048489231959E-03
              -1.7508082244299889E-03
              -7.0538355284507992E-03
               9.1842175397040780E-03
               1.6888591793481652E-03
               4.0917612422066985E-03
               3.7348852281314251E-03
               5.3967050425722564E-03
              -7.8415349076965766E-03
              -6.7513878819605065E-03
               4.1600625881426708E-03
               2.7742817349979305E-03
               4.4531420154554861E-03
              -1.3564003340114164E-03
               8.0302101958122495E-03
              -1.3494216212264418E-05
               4.9465220595816565E-03
              -6.3374907268208894E-03
               1.1055709013740018E-02
               2.6193488307117057E-03
              -1.0738070149551159E-02
              -2.9097512330061468E-03
               2.0133575892205442E-03
               6.3880216930846424E-03
               3.2075571707000593E-03
              -1.4718665760005026E-02
               6.1765846965364541E-03
               4.4696569526938203E-03
              -1.1272850120761744E-02
               1.3843742583911850E-02
              -1.5057464059683563E-02
              -8.3910554017133749E-04
               4.2984598352723046E-03
               4.9832595298291305E-03
               4.6664198398095316E-03
              -2.4762083214450215E-02
               9.4756441137938460E-03
               1.2354982128390958E-02
               3.0379978147968391E-03
              -4.0989856513724233E-03
               5.0713880316160150E-03
              -5.3829011145993576E-03
              -5.1356572662617506E-03
               5.6252094459666594E-03
               2.0995972421062330E-03
               1.1304610521340899E-02
               2.2502210021883638E-03
              -1.3436395935237499E-02
              -1.0299834779100202E-02
               1.9056518811439705E-03
              -3.5977387943792372E-04
               1.0862043816942482E-03
               4.0121013277882135E-04
              -1.9166769769226788E-04
               5.3671601726330599E-03
               9.4983217636235913E-04
               1.6541820518471478E-03
              -3.0447748437856439E-03
               2.0538810657773389E-03
               3.6233459871107287E-03
              -3.1901254616284102E-03
               3.9082443325242017E-03
              -6.7698749972262004E-03
               1.1648014424418250E-02
               7.7263995774582888E-03
              -1.3214650374832649E-02
               2.1954410641480404E-03
              -1.5929977289124335E-03
              -4.4222896477050600E-03
               5.9009161800709878E-04
               1.4905251465558984E-03
               1.6617284716723664E-03
              -7.0739356456470657E-04
               1.0502513644739106E-02
               1.2072153061708430E-03
              -1.2598001602727681E-03
               7.3630682241135424E-03
              -3.6045499372707852E-03
              -5.9637492370043111E-03
              -6.2453148034388138E-03
               6.9041411595820966E-03
              -8.2065149581109238E-03
              -3.8303403261963471E-03
               5.4315827382462132E-03
              -1.1774291377684575E-03
              -7.8804599011296078E-03
              -4.4037898776051135E-04
              -7.4704524374382226E-03
              -4.9513214485504605E-03
               6.8715544205535791E-03
               1.4418007101874880E-02
               1.4532000799588765E-02
               4.5718971165961703E-03
              -5.2612784654513167E-03
         &END THERMOSTAT_ENERGY
         &RNG_INIT
Wiener process for Thermostat # 1        1 F T T   3.7280401166127353E-01        2396824340.0        1285798124.0        1970812289.0        4262378425.0        2500496477.0        3105761546.0             12345.0             12345.0             12345.0             12345.0             12345.0             12345.0             12345.0             12345.0             12345.0             12345.0             12345.0             12345.0
Wiener process for Thermostat # 2        1 F T T  -2.8031459711754392E-01        1517340215.0         764337745.0        1777988352.0        1272471177.0        3093987526.0        2495380513.0        3692455944.0        1366884236.0        2968912127.0         335948734.0        4161675175.0         475798818.0        3692455944.0        1366884236.0        2968912127.0         335948734.0        4161675175.0         475798818.0
Wiener process for Thermostat # 3        1 F T T   7.0414863813957229E-01        1874984675.0        3540139467.0        3102430019.0        1608426380.0         643336117.0        1230365417.0        1015873554.0        1310354410.0        2249465273.0         994084013.0        2912484720.0        3876682925.0        1015873554.0        1310354410.0        2249465273.0         994084013.0        2912484720.0        3876682925.0
Wiener process for Thermostat # 4        1 F T T   2.2606224243119818E-01        3416187057.0        1637601412.0         393440280.0        2948182120.0        3407482107.0        2343296956.0        2338701263.0        1119171942.0        2570676563.0         317077452.0        3194180850.0         618832124.0        2338701263.0        1119171942.0        2570676563.0         317077452.0        3194180850.0         618832124.0
Wiener process for Thermostat # 5        1 F T T  -1.0267294306732384E+00         315072143.0        4137263975.0        4196656129.0        1282237791.0        3639735469.0        1937530485.0        1597262096.0        3906379055.0        3312112953.0        1016013135.0        4099474108.0         275305423.0        1597262096.0        3906379055.0        3312112953.0        1016013135.0        4099474108.0         275305423.0
Wiener process for Thermostat # 6        1 F T T   9.2624835653208748E-01        3222219212.0        3105331301.0        2094058484.0        2511776071.0        3719186732.0        3505559269.0          97147054.0        3131372450.0         829345164.0        3691032523.0        3006063034.0        4259826321.0          97147054.0        3131372450.0         829345164.0        3691032523.0        3006063034.0        4259826321.0
Wiener process for Thermostat # 7        1 F T T  -4.6721006089689310E-01        2921304001.0        3534845789.0         764942181.0        2980414860.0        2807768180.0         274774080.0         796079799.0        2105258207.0         955365076.0        2923159030.0        4116632677.0        3067683584.0         796079799.0        2105258207.0         955365076.0        2923159030.0        4116632677.0        3067683584.0
Wiener process for Thermostat # 8        1 F T T   4.8809173354813140E-01        3327178806.0        3682317356.0        2663069382.0         319044460.0        3975670735.0         562702070.0        3281794178.0        2616230133.0        1457051261.0        2762791137.0        2480527362.0        2282316169.0        3281794178.0        2616230133.0        1457051261.0        2762791137.0        2480527362.0        2282316169.0
Wiener process for Thermostat # 9        1 F T T  -8.1805399140306756E-01         433221438.0         349071730.0        2033385903.0        2639944804.0        3988392127.0        3801627598.0        3777646647.0        1837464056.0        4204654757.0         664239048.0        4190510072.0        2959195122.0        3777646647.0        1837464056.0        4204654757.0         664239048.0        4190510072.0        2959195122.0
Wiener process for Thermostat # 10       1 F T T  -2.7062828385550008E-01        2290601073.0        1666814614.0        3289919364.0        2930088785.0        1500929831.0        1860303943.0        4215590817.0        3862461878.0        1087200967.0        1544910132.0         936383720.0        1611370123.0        4215590817.0        3862461878.0        1087200967.0        1544910132.0         936383720.0        1611370123.0
Wiener process for Thermostat # 11       1 F T T   6.8652417552969780E-01        2151060734.0         580174056.0        1748210725.0         399674445.0        1879492130.0        2741776977.0        1683636369.0         362165168.0         814316280.0         869382050.0         980203903.0        2062101717.0        1683636369.0         362165168.0         814316280.0         869382050.0         980203903.0        2062101717.0
Wiener process for Thermostat # 12       1 F T T   1.2985463821691814E+00        3478492904.0        1830493925.0          17364685.0        2058676739.0        2676153401.0        4087350495.0         272317999.0         166758548.0         310112982.0         201045826.0        1680231254.0         118290799.0         272317999.0         166758548.0         310112982.0         201045826.0        1680231254.0         118290799.0
Wiener process for Thermostat # 13       1 F T T   2.0061703114922356E+00        2097018817.0        1300727704.0         367347443.0         582130443.0        2824054692.0        3111690587.0        2245755202.0        1652682525.0        2865544364.0         721509566.0         209733568.0         592362218.0        2245755202.0        1652682525.0        2865544364.0         721509566.0         209733568.0         592362218.0