 # Version information for this restart file 
 # current date 2022-11-29 16:54:54.698
 # current working dir /scratch/work/courses/CHEM-GA-2671-2022fa/tp2353/comp-lab/comp-lab-class/Week12/Runs/Protons
 # Program compiled at                              Sat Dec 12 18:27:15 EST 2020
 # Program compiled on                                         cs001.nyu.cluster
 # Program compiled for                                                nyu-intel
 # Source code revision number                                       git:8c64c6e
 &GLOBAL
   PRINT_LEVEL  LOW
   PROJECT_NAME proton_aimd_1ns_every0.5fs
   RUN_TYPE  MD
   WALLTIME 21600
 &END GLOBAL
 &MOTION
   &GEO_OPT
     OPTIMIZER  BFGS
     MAX_ITER  100
     MAX_DR     3.0000000000000001E-03
     &BFGS
     &END BFGS
   &END GEO_OPT
   &MD
     ENSEMBLE  NVT
     STEPS  2000
     TIMESTEP     4.9999999999999994E-01
     STEP_START_VAL  500
     TIME_START_VAL     2.4999999999999795E+02
     ECONS_START_VAL    -1.1027507157744390E+03
     TEMPERATURE     3.0000000000000000E+02
     &THERMOSTAT
       TYPE  GLE
       REGION  MASSIVE
       &GLE
         NDIM  5
         A_SCALE     1.0000000000000000E+00
         A_LIST     1.8595758612559999E+02    2.7263853498399998E-01    1.1526100454610001E+01   -3.6414578262600003E+01 \
             2.3173375816020001E+02
         A_LIST    -2.7809524712060002E-01    8.5951591808710006E-05    7.2189048017650004E-01   -1.9844539343859999E-01 \
             4.2409257583420001E-01
         A_LIST    -1.4825808131210000E+01   -7.2189048017650004E-01    1.3590902121280000E+00    5.1498896280349999E+00 \
            -9.9949268450990001E+00
         A_LIST    -1.0372189126880000E+01    1.9844539343859999E-01   -5.1498896280349999E+00    2.6661910891169999E+01 \
             1.1507715495310000E+01
         A_LIST     2.1801346360420001E+02   -4.2409257583420001E-01    9.9949268450990001E+00   -1.1507715495310000E+01 \
             3.0958394565589998E+02
         &THERMOSTAT_ENERGY
              -3.1199628886088896E-03
              -8.8296450781902378E-04
              -1.2604077685890855E-03
               9.6278624612928534E-04
              -6.4207027638427889E-03
               9.5879397497627321E-04
              -2.1464428563120050E-03
              -2.5477025685230726E-03
               8.2520867959389333E-03
               2.8037027388888225E-03
               6.5274997074367255E-03
              -2.4149937904500260E-03
               2.7633480726802634E-03
              -1.5754068654831913E-03
              -7.9927581135532744E-05
              -2.9024475424004200E-03
               1.5658264107102121E-03
              -2.3620329905611331E-03
               5.0562907194040812E-03
              -5.7059340649201658E-04
               2.7719719242806791E-03
              -3.5087759279418015E-03
              -1.0719499856765122E-03
               1.7974780325875413E-03
              -3.5511839834760071E-03
              -1.6270370170103104E-04
              -3.8752231056091366E-03
               4.0362526657549526E-03
               5.2616012505166967E-04
               4.6669468095249955E-04
              -5.9107324934585172E-03
               3.5455979142062781E-03
               6.6086251246361295E-03
              -5.2560396402346709E-04
              -1.8579988473427652E-03
               4.5391607377551655E-03
              -1.0372291517797925E-03
              -9.8918253984794463E-05
               1.3994010070947703E-03
              -4.7876561996728299E-03
               3.8733093411589129E-03
               1.9268933638324600E-04
               3.4806162461652550E-03
               3.4867590792658013E-03
              -8.4021317364173214E-03
               3.7166131081291338E-03
              -2.1524244490099182E-03
               1.0143384287206471E-03
              -4.4558908864879140E-03
               6.6898555257775263E-04
               3.2725503301527805E-04
              -2.7649769711590266E-03
               2.3522163756042294E-04
               1.0198831856759951E-03
              -5.7400692288037177E-03
               3.4799062819149819E-03
               6.2593433845178827E-04
              -9.3112359241065553E-04
               1.1795074903042978E-03
               4.5816261609727829E-03
              -1.9285319182797487E-03
               1.5136441784552672E-03
               4.0258700355504697E-03
               1.9289367489853525E-03
              -2.8790426287077894E-03
               3.8634502852631326E-03
               2.3507240121276168E-03
               4.8404628394800213E-03
               5.8013262146871620E-03
               2.4280877177509847E-03
               3.0845828995932686E-03
              -5.2031652341466735E-03
              -1.3903241481352626E-03
               7.0441234760738739E-04
              -2.1676491903861689E-03
              -2.7508495912323180E-03
               3.9680971687001817E-03
              -1.6952045644209393E-03
               4.2461023165328198E-03
               8.5720278790410128E-04
              -2.9998267580601148E-04
              -1.9461018779423991E-03
               1.4760207766579736E-03
              -7.0575329030930984E-04
               3.0454037925672882E-03
               1.6945902831039246E-03
              -5.5402032285443124E-03
               3.3256564954003993E-03
               2.5717076555953526E-03
              -6.5733595848882507E-03
               7.0098456584121744E-03
              -4.8868441164847893E-03
               1.4619318973042731E-03
               2.9309821294835592E-03
              -4.6637984758142572E-03
               7.8984265677718053E-03
               3.4591458823089094E-03
               2.4776743935633022E-03
               2.3506898199996910E-03
               4.0155965307873999E-03
               1.4660071367058334E-03
              -2.3993521700574308E-03
              -8.3739192282170560E-04
              -2.1592389060027619E-03
               2.0988454041988808E-03
              -1.1220488223540688E-03
               4.0141529534283632E-03
              -5.0970712144020140E-05
               5.3588379723618473E-03
              -1.6381391802573013E-03
               3.0262241751358725E-03
              -1.5558956524956648E-04
               2.6567343214998996E-03
               2.1076475399001838E-03
               2.2306283886425055E-03
               4.5568503351899802E-03
              -6.9825657559417003E-03
               3.0217735368469356E-03
              -3.4117002067901160E-03
              -6.8867633008281410E-04
              -2.4885127082724884E-03
               2.7229677169741894E-03
               2.5369769296892464E-03
              -3.2497029629121525E-03
              -4.7413657148785227E-03
              -5.6868338749285958E-04
               7.3669558451716546E-04
               1.1654900507518293E-03
               2.0367070999268025E-03
               8.4485854560953930E-04
              -4.7049729824677087E-03
               5.5695750298209463E-03
               2.7708124038732527E-03
              -3.0035777913918031E-03
              -1.7954114660928984E-03
               7.7196512204913957E-04
              -2.1440495420770580E-03
              -3.0135339674510912E-04
              -1.8770533846357789E-04
              -4.9210589211973457E-03
               4.9690970921917746E-03
               2.1665628785492693E-03
               1.2607166621849640E-03
               1.5759811594310345E-03
              -3.9181333619993489E-04
              -1.6271049121719650E-03
               5.9046727589806818E-03
               2.1612586083224390E-03
              -2.1010329394149591E-03
               4.9685749603334689E-03
              -6.6901487559235607E-03
               3.0623668700391180E-03
              -7.1048977300417187E-04
               1.2471992123038193E-03
               1.1844213253585632E-03
              -3.3454366820494610E-03
               3.0984545467875265E-04
              -3.6473957734423045E-03
              -1.5636794468917136E-03
               3.8204872845162717E-03
              -3.7299888205200552E-03
               9.9296244670200981E-04
              -4.3847741379354115E-04
              -5.1127879701571535E-04
               2.8271499416424794E-03
               7.7222697532469348E-03
               1.8269397430578694E-03
              -8.7501237339852062E-03
              -4.1167894444966947E-03
               4.3963386711450324E-03
               1.1794209405848245E-03
               1.3787711764539378E-03
               4.2423288654344386E-03
              -3.8768639773754058E-03
               3.1873754215743948E-02
               8.8523071371400756E-03
               1.9239784544146325E-02
              -3.7029174195326929E-03
              -1.2440883223147404E-03
               5.1571388419545238E-03
               5.8091063112172270E-03
               7.2077994418082410E-03
               1.4028173137468564E-02
              -5.6158811461373267E-03
              -5.9840725012352423E-05
              -5.1165998375461675E-04
               5.2286507516719014E-03
              -4.9675399282562253E-03
              -1.1223172707700033E-03
              -2.8538552629153841E-03
              -2.2224850159255881E-04
               1.6484485847965582E-03
              -2.1403081782563546E-03
              -3.9874780139145041E-03
               1.5903629726036865E-03
               2.0956060277117360E-03
              -2.9476284186953274E-03
               3.3931974838138294E-04
              -1.6433429307651963E-04
               4.4836007483759549E-03
               1.8990370910773452E-03
               3.2573123711947681E-03
               2.3511326351006827E-03
               2.8662436157294987E-03
              -6.2700038357400376E-03
              -6.0311966612151390E-03
               2.0972888255014217E-03
               7.6422281009412693E-04
              -8.9181127960801035E-03
               8.5086852014968541E-03
              -4.5358396818949648E-04
               4.4819298456698733E-04
               6.8040940817299190E-03
               2.0217231421173084E-03
              -7.9052784053134061E-03
               6.0776461121632821E-03
              -3.7147070068613325E-03
               1.2015486010447890E-03
              -3.0884766293594228E-03
               9.1897256301498782E-04
              -2.0361922331650342E-03
               8.6324046486254704E-04
              -1.1016250773123084E-03
               2.1722768572276195E-07
              -2.3213123067914302E-03
              -5.2387945762544024E-04
               1.0237756450876185E-03
              -5.7791839552930849E-04
              -2.3941665543218997E-03
              -1.3529393343600735E-03
              -2.5988023809423826E-03
               4.8806374365996646E-03
               6.8947177617875608E-03
              -2.6111387246728263E-03
              -3.6782181763906783E-04
              -1.3183156605870150E-03
              -3.3113230412742363E-03
               2.7246458260494896E-03
               3.2339645012865320E-04
               6.6958079181114901E-04
              -3.1118891806862863E-03
               2.3801868890477112E-03
               1.8356547728393788E-03
              -1.6445915350830887E-04
              -5.2062544724436907E-04
              -2.1832978555152930E-03
               1.5467700918274786E-04
              -2.4370114980590920E-03
              -8.0304819364512728E-04
              -3.7028080145701486E-03
              -1.1651297221148278E-03
               1.9696299928150876E-03
              -4.0899001383416372E-03
              -1.3647120086436608E-03
               5.9927784357730555E-03
              -2.0796436459122138E-03
               8.4082565541659460E-04
              -1.1081368142476710E-03
               5.8161790908880867E-04
              -1.7209857625689754E-03
               2.8944058770130790E-03
               3.6828601903683500E-03
               3.3637892455828031E-03
              -8.5050240353012104E-05
               2.4543736369547650E-04
              -1.8670448262582558E-04
              -2.5302390007151177E-03
              -9.3087362777964254E-04
              -5.4273440723076024E-03
               4.3018557324777254E-03
               8.6804147539861008E-04
              -7.6663663714503644E-03
               1.5274301953408312E-03
               8.4385472921051836E-04
              -1.9077471676879787E-03
              -2.5245627387273815E-03
              -2.2886157655901710E-03
               5.6532243530982322E-03
              -3.6920990292725327E-04
               2.1781499434630561E-04
              -3.4191927902339435E-03
              -4.5900330107267601E-03
              -1.1662775740400025E-03
               8.2838102777239159E-03
               5.5125888807116882E-03
               1.5448605352586277E-03
               8.8876505843264752E-04
              -2.2807309450756557E-03
              -5.9786221339617873E-03
               7.9535999121488100E-03
               2.1335958567728396E-03
              -5.2116214494523640E-04
              -2.6375828489244037E-05
               1.5774308148281684E-03
               5.5937943273769825E-04
               8.1437474115698301E-03
              -7.5640955191410859E-03
               3.8132134933128296E-03
               5.4358511008719291E-05
              -3.0451798372677715E-03
              -1.0160622644052328E-03
               2.9172875824750900E-03
               4.0351172814736243E-03
               6.5937936325927956E-03
               6.1176980389139894E-04
              -3.3637891724541320E-03
              -5.2858676134768159E-03
               1.5695023122870579E-03
              -4.4775042173365306E-04
               4.4216455120176185E-04
              -1.6089437569102275E-04
              -3.6425690684122104E-03
               2.1247282599574698E-03
               5.8376892760278638E-04
               2.2626516031553864E-04
              -2.8605566474740997E-03
              -3.5025556879810520E-03
               3.9435614078236177E-03
              -1.4856570119406169E-03
               2.5428811353661054E-03
               2.8680824325817114E-03
              -2.0642904354270151E-03
              -9.9622628926386288E-04
              -4.2042627612995037E-03
               1.5879920335198166E-03
               3.2620789004578548E-03
               2.4604090326772131E-03
               9.3893467731473294E-04
               6.6475159300150044E-04
              -1.3840068065197298E-03
              -2.1106398382766470E-03
              -5.2912215979128321E-04
               2.3187573191701411E-03
               4.3823525910696402E-03
              -2.0283994747291242E-03
               3.1738249468128384E-04
               2.0420438869878004E-03
               1.1754777108410521E-03
               2.6270018849584805E-03
               4.6722287054333598E-03
              -1.6127209203202410E-04
              -4.8278785563325266E-04
               2.2761525781516195E-03
               1.0017276526447566E-03
              -6.8696457688285396E-04
               6.5906931706903788E-04
               1.3467657941272190E-03
              -1.1727807244989461E-03
               2.1288480605682991E-03
              -4.1237475969429956E-03
               9.9616592421793507E-04
               1.5883990188674427E-03
              -8.3957646919243911E-04
               4.5241574341815475E-03
              -2.9327704140233056E-03
               1.4933946324832115E-03
              -2.2716125696526303E-03
               3.6748619374533820E-03
              -9.3455738667664397E-04
              -5.3035479780554375E-03
               3.3267410044216044E-03
              -3.6949718053289906E-03
               7.6644595173533323E-03
               2.7899652502508853E-03
               2.0742982725509816E-04
               1.5534975043399791E-03
               8.6781198397937916E-03
               1.2706702365499502E-03
              -1.1892539972110655E-02
              -9.2646529640317546E-04
              -4.0029551809633596E-03
              -1.1698121788936613E-03
               1.5050879449323771E-03
              -1.7827079406655998E-03
              -1.9351824272888349E-03
               4.0635398671283410E-03
              -5.1806783749990450E-03
              -6.5748572411349886E-03
               1.3590715549528572E-03
               2.1946188819270546E-03
               2.1376541416812706E-03
               2.1507054808732537E-03
               5.4543635039581680E-04
              -1.2479779471694290E-03
              -3.4993406023937821E-03
               6.0973242952379217E-04
               4.0600692292076133E-03
              -1.1858343509241187E-03
               4.9235837300965670E-03
               1.3973715888133508E-03
              -1.8791021713388754E-04
               3.0083280460251761E-03
              -6.5847079095869847E-04
              -6.3019590719572867E-03
               9.8975438132463986E-04
               3.2962914377163846E-03
               3.5509156635428140E-03
               3.8440298120978535E-04
               4.5036270215756982E-04
              -2.4422939815604157E-03
              -2.4755888785512872E-03
               2.6304858942004204E-03
               5.3530881539745508E-03
               1.8250530537737019E-03
              -4.6207909370215945E-03
              -2.5962051573029002E-03
               3.2128933639755538E-03
              -7.5830865729254425E-03
              -3.2650146823220618E-03
               2.0388736481165019E-03
               4.3218413665197224E-04
              -1.3007238017676236E-03
               3.9490725967939767E-04
              -5.0237482031081186E-03
              -3.9130869497602111E-04
               5.6623283885550366E-03
              -2.6258507073846811E-03
               2.8554503896126605E-03
              -6.2702248940178112E-04
              -1.4845954027126870E-03
               5.2482100421434911E-04
              -2.5065814771418125E-03
               1.3028625939265771E-03
              -1.3109246546076550E-03
               7.5583927164762530E-04
               2.3988504726813907E-03
               1.5967215530205154E-03
              -5.4724780016462346E-03
              -3.2971781121963876E-04
               7.6603425066824066E-03
               4.0264474352099266E-05
              -1.4624295666057943E-03
              -3.0267708691293174E-03
              -3.3985074103452390E-03
               3.1780567221154177E-03
               4.3020025335084432E-03
               8.4220563066988112E-05
              -1.5515079057802712E-03
              -1.5348642031651655E-05
               8.6827102649619054E-04
               4.1231654101853386E-03
              -5.2062969163031464E-04
              -4.3781209024735748E-04
               3.3457052318798526E-03
               4.0860488437606153E-03
               7.0516519592991695E-03
               5.2511249754366666E-03
              -1.8000592536034179E-03
              -1.7820998907246851E-03
              -6.6753278361032103E-04
              -3.2305486836721169E-03
              -7.5341528931460776E-03
               4.4616903215525918E-03
              -2.6861174722363484E-04
              -1.2106958600933400E-03
              -2.3157038776106718E-03
               5.3169349582988211E-04
              -1.9849617488056693E-03
              -3.9072466248175495E-04
               1.3687246856162487E-03
              -5.8096697155982199E-04
               3.9695047776903813E-03
              -2.0505122873614185E-03
               1.0297790768272466E-03
               4.9513933823616824E-03
               5.2247938647744085E-03
              -5.0092124216825759E-03
              -1.3044899274291390E-03
               8.7844158264488187E-04
               2.0887222194772639E-03
              -3.7403438111018295E-03
              -5.5927140047144904E-04
               3.4864187523319513E-03
              -1.8465606150109279E-04
              -1.8116446251421653E-03
               5.5179304899723169E-03
              -7.5868138984321509E-04
               3.3530431969298208E-04
              -5.4889711933722206E-03
               2.0115542421080307E-03
              -5.9219064758870806E-04
               3.8241522568208385E-04
               1.4191034763196590E-03
               3.6406867368985654E-03
               6.0976147232272195E-04
              -2.0984218964543201E-03
              -3.9035417201857248E-03
              -6.0133199607549127E-03
               4.6234240007393349E-03
               1.0293911295816590E-04
              -1.0011672671366126E-03
               2.6804454137703748E-03
              -8.7246728562095986E-04
              -4.8856832057204260E-03
               3.3102509055487530E-03
              -7.2356964819756927E-03
               6.6538253456089984E-03
               6.0217424599185373E-03
               4.3246382990063548E-03
               2.1711626574325467E-03
              -9.6677862119051196E-04
              -1.3912733724174664E-03
              -8.2903245028162712E-03
               6.9340594064576308E-03
              -2.4999976699590048E-03
              -6.8995680336619977E-03
               1.1232698778689677E-03
               2.7365485210540902E-03
               7.7656892544200509E-04
               2.1159858397706345E-03
               1.2960413154599515E-03
               3.6126597341289715E-04
              -2.8001418028594897E-03
              -6.7232611603371744E-03
               3.4535995555755065E-03
               1.3709850777553767E-03
              -3.4800150613748244E-03
               3.3256310401904910E-03
               5.7376651904329067E-03
              -3.7136652078250862E-03
              -8.6690292481043842E-04
               9.4364813211746145E-04
               2.3464868055814042E-03
              -2.7161700739562681E-03
              -3.5260728737762990E-03
               5.7844748697093498E-04
               7.7811665672978712E-04
               6.9501579371920429E-04
               4.5077107903313384E-03
               3.9011222266463765E-03
              -2.8323721018819106E-03
              -2.4420178978704068E-03
               5.2488452547249981E-04
              -4.8377386328976616E-03
               1.7867081254613979E-03
              -2.7882076655352139E-04
              -4.2600764625150679E-04
               1.4208018344634065E-03
               2.0655642298773322E-03
               1.1255358895610054E-03
               1.0105070800865378E-03
               3.1140355392829410E-04
              -3.7854878536404350E-03
               4.3489868740168784E-04
               3.1816298931144700E-03
              -5.0623699767901880E-04
              -3.6619978065884036E-04
               1.1193241061226932E-03
               4.7660901656329090E-03
               2.7592335938783569E-03
              -9.4422296533493918E-03
              -1.5395344412303946E-03
              -1.6901078684803262E-04
              -1.1701389780632478E-04
              -2.0085776959636115E-03
              -8.5152632855935179E-03
               7.0548644167404246E-04
              -7.6234351895449793E-04
               7.5733338724367910E-03
               1.8145594896231366E-03
               4.7449976199590311E-03
              -5.8905956743368138E-04
              -9.2525648637504761E-04
               1.6753074020753635E-03
               5.0578728902943510E-04
               7.6015526496761923E-03
              -6.8656179759086439E-03
              -5.1482045815867848E-03
               6.3883068117158888E-03
              -6.5548359730333130E-03
               1.5393128271591402E-03
              -4.3883669181317298E-03
              -3.4357167389870453E-03
              -3.2767235691860321E-03
               4.3588517681797971E-03
              -1.4551304672166048E-03
               2.7484713930415986E-03
               9.7482490627377513E-03
              -2.9202334985034841E-03
         &END THERMOSTAT_ENERGY
         &RNG_INIT
Wiener process for Thermostat # 1        1 F T T  -1.5505429657892764E+00         661802595.0        2026459976.0        3136775027.0        3268219721.0        1056216878.0        3744216088.0             12345.0             12345.0             12345.0             12345.0             12345.0             12345.0             12345.0             12345.0             12345.0             12345.0             12345.0             12345.0
Wiener process for Thermostat # 2        1 F T T   1.5766939834860993E-01        2521559082.0        1979391111.0        3972826820.0        2839528192.0        3960449033.0        3051881342.0        3692455944.0        1366884236.0        2968912127.0         335948734.0        4161675175.0         475798818.0        3692455944.0        1366884236.0        2968912127.0         335948734.0        4161675175.0         475798818.0
Wiener process for Thermostat # 3        1 F T T  -1.6802103653762466E+00        2464096834.0        3454226368.0         668358963.0        3607867155.0        2139338144.0        1695442074.0        1015873554.0        1310354410.0        2249465273.0         994084013.0        2912484720.0        3876682925.0        1015873554.0        1310354410.0        2249465273.0         994084013.0        2912484720.0        3876682925.0
Wiener process for Thermostat # 4        1 F T T  -9.2120442907176847E-01        3007810664.0         626544053.0           5688727.0        2019501767.0        4050809287.0        2188826537.0        2338701263.0        1119171942.0        2570676563.0         317077452.0        3194180850.0         618832124.0        2338701263.0        1119171942.0        2570676563.0         317077452.0        3194180850.0         618832124.0
Wiener process for Thermostat # 5        1 F T T   1.9586792436148486E+00        3119398129.0        2238966874.0        1731687009.0        1729823850.0        3912388439.0         182524877.0        1597262096.0        3906379055.0        3312112953.0        1016013135.0        4099474108.0         275305423.0        1597262096.0        3906379055.0        3312112953.0        1016013135.0        4099474108.0         275305423.0
Wiener process for Thermostat # 6        1 F T T  -2.2012851380256623E-01         527820745.0        2447393615.0         338698828.0         653439858.0         976211817.0        3944196308.0          97147054.0        3131372450.0         829345164.0        3691032523.0        3006063034.0        4259826321.0          97147054.0        3131372450.0         829345164.0        3691032523.0        3006063034.0        4259826321.0
Wiener process for Thermostat # 7        1 F T T  -1.2191095662093037E-02         167278661.0        2992638024.0        1197931920.0         124710794.0         889033703.0        2194094787.0         796079799.0        2105258207.0         955365076.0        2923159030.0        4116632677.0        3067683584.0         796079799.0        2105258207.0         955365076.0        2923159030.0        4116632677.0        3067683584.0
Wiener process for Thermostat # 8        1 F T T  -2.6373530393371375E-01        2923147749.0        3809475671.0         892364519.0        3114385888.0        3523415917.0        3402922821.0        3281794178.0        2616230133.0        1457051261.0        2762791137.0        2480527362.0        2282316169.0        3281794178.0        2616230133.0        1457051261.0        2762791137.0        2480527362.0        2282316169.0
Wiener process for Thermostat # 9        1 F T T  -1.2388913960989989E+00         276694386.0        3384434371.0        2194062143.0        3864498526.0        2498625561.0        4174179731.0        3777646647.0        1837464056.0        4204654757.0         664239048.0        4190510072.0        2959195122.0        3777646647.0        1837464056.0        4204654757.0         664239048.0        4190510072.0        2959195122.0
Wiener process for Thermostat # 10       1 F T T  -6.9271884074884071E-01         298842605.0        4183294382.0        3769908432.0        1623977651.0        3452521187.0         349927101.0        4215590817.0        3862461878.0        1087200967.0        1544910132.0         936383720.0        1611370123.0        4215590817.0        3862461878.0        1087200967.0        1544910132.0         936383720.0        1611370123.0
Wiener process for Thermostat # 11       1 F T T  -3.9199517781213300E-01        1183014876.0        2469777470.0        2706060047.0        1374668043.0         490283634.0         131761905.0        1683636369.0         362165168.0         814316280.0         869382050.0         980203903.0        2062101717.0        1683636369.0         362165168.0         814316280.0         869382050.0         980203903.0        2062101717.0
Wiener process for Thermostat # 12       1 F T T   1.2248374085476998E+00         744312290.0        1838623065.0        1895433531.0        2930723882.0        3034111406.0        1223209339.0         272317999.0         166758548.0         310112982.0         201045826.0        1680231254.0         118290799.0         272317999.0         166758548.0         310112982.0         201045826.0        1680231254.0         118290799.0
Wiener process for Thermostat # 13       1 F T T   1.6053528300026945E-02         341235087.0         365462780.0         607175623.0        3292057964.0        1611524565.0         256574977.0        2245755202.0        1652682525.0        2865544364.0         721509566.0         209733568.0         592362218.0        2245755202.0        1652682525.0        2865544364.0         721509566.0         209733568.0         592362218.0