 # Version information for this restart file 
 # current date 2022-11-29 20:49:13.860
 # current working dir /scratch/work/courses/CHEM-GA-2671-2022fa/tp2353/comp-lab/comp-lab-class/Week12/Runs/Protons
 # Program compiled at                              Sat Dec 12 18:27:15 EST 2020
 # Program compiled on                                         cs001.nyu.cluster
 # Program compiled for                                                nyu-intel
 # Source code revision number                                       git:8c64c6e
 &GLOBAL
   PRINT_LEVEL  LOW
   PROJECT_NAME proton_aimd_1ns_every0.5fs
   RUN_TYPE  MD
   WALLTIME 21600
 &END GLOBAL
 &MOTION
   &GEO_OPT
     OPTIMIZER  BFGS
     MAX_ITER  100
     MAX_DR     3.0000000000000001E-03
     &BFGS
     &END BFGS
   &END GEO_OPT
   &MD
     ENSEMBLE  NVT
     STEPS  2000
     TIMESTEP     4.9999999999999994E-01
     STEP_START_VAL  1998
     TIME_START_VAL     9.9899999999998238E+02
     ECONS_START_VAL    -1.1027507157744390E+03
     TEMPERATURE     3.0000000000000000E+02
     &THERMOSTAT
       TYPE  GLE
       REGION  MASSIVE
       &GLE
         NDIM  5
         A_SCALE     1.0000000000000000E+00
         A_LIST     1.8595758612559999E+02    2.7263853498399998E-01    1.1526100454610001E+01   -3.6414578262600003E+01 \
             2.3173375816020001E+02
         A_LIST    -2.7809524712060002E-01    8.5951591808710006E-05    7.2189048017650004E-01   -1.9844539343859999E-01 \
             4.2409257583420001E-01
         A_LIST    -1.4825808131210000E+01   -7.2189048017650004E-01    1.3590902121280000E+00    5.1498896280349999E+00 \
            -9.9949268450990001E+00
         A_LIST    -1.0372189126880000E+01    1.9844539343859999E-01   -5.1498896280349999E+00    2.6661910891169999E+01 \
             1.1507715495310000E+01
         A_LIST     2.1801346360420001E+02   -4.2409257583420001E-01    9.9949268450990001E+00   -1.1507715495310000E+01 \
             3.0958394565589998E+02
         &THERMOSTAT_ENERGY
               1.1080017971742684E-03
              -2.9195016632481007E-03
              -3.7769393521310457E-03
              -1.5384668066827979E-04
              -2.0126686952229737E-02
               1.3664031334214648E-03
              -7.1057798753799781E-03
               1.0911050187350224E-03
               5.2649369470437885E-03
               1.4411833961314752E-03
               7.1896327822837149E-03
               4.5739917497945306E-03
              -8.6971980590586830E-03
              -2.9908080627983257E-03
               7.2985224463773994E-03
              -3.9066061143044669E-03
               3.0565769379529073E-03
              -1.5227636545446076E-04
               3.7489662680737054E-03
               8.5067499706749394E-04
               6.8241542818584693E-04
               9.8127037672805610E-03
              -9.6310813943020386E-03
              -1.0497256410626623E-02
               3.1850891753485084E-04
              -5.4851493647726209E-03
              -1.4979506786299535E-03
              -2.5604410160485840E-03
               1.9300600512354338E-03
               3.9249592669047349E-03
              -3.1669467547279554E-03
               2.3561211863223071E-03
               8.4281452772748660E-03
              -1.4699645450534868E-04
               1.1692872444394047E-03
               8.7721614484520729E-03
               2.9036660449888729E-03
              -2.2673881068433514E-03
               1.8265910163490597E-03
              -1.5313880830548441E-03
               7.9821762085011683E-03
              -9.2281364497547418E-03
               6.5828444686838539E-03
               3.8417971766241286E-03
               5.8358294866343308E-03
               1.9261294049167745E-03
              -6.5964915417582081E-03
              -1.6781860696367589E-03
               1.9785724521241407E-03
              -1.1653785044824954E-03
              -4.1166071942952747E-03
               9.1245836600566538E-03
              -8.4573271735526451E-03
              -9.7554256412885568E-03
              -9.0337904565505403E-03
               2.1516311102831830E-03
               1.6252800121263507E-03
              -1.1162523916298085E-02
              -1.3327307168379378E-03
               1.1949838871732312E-02
              -7.7100448397428940E-04
              -6.5394616533861350E-03
               1.9554132569557747E-02
              -1.0840332511601232E-04
              -3.7012608582252210E-03
               5.4407955607721180E-03
              -6.8825217393704693E-04
               1.0325903482343197E-02
               1.7765658241588642E-02
              -3.1676266149279599E-03
              -3.5782525384514602E-03
              -5.5403633269411230E-03
              -2.3885206200218415E-03
               2.0528670835050214E-03
              -3.4966331661092573E-03
              -1.2789280893799443E-02
               9.5357255316878709E-03
              -4.4645551391845955E-04
              -1.6451041657500542E-03
              -3.6909979613650931E-03
               8.7873972591097638E-03
              -6.2172085738295040E-03
               1.5062454228965793E-03
              -1.2168415598355451E-03
               9.9415746853242300E-04
               1.0760085358558864E-02
              -6.5030755080653238E-03
              -8.2141796954193005E-03
               1.1005466139296028E-02
              -1.1115531763850290E-02
               7.9235178398862061E-04
              -7.8651785456324685E-03
               2.5470106904688976E-04
              -1.8286087865246471E-03
              -4.6223963900587544E-03
               8.6986071154955893E-03
               6.6496883290196110E-03
               4.4457639019412970E-03
               1.0111834189535474E-02
               3.5158791082205544E-03
              -4.4304671709167326E-03
              -3.3608920844499174E-03
               3.1157280308313036E-03
              -3.0725337782855646E-03
              -1.9081777450934468E-03
               1.3845190392672579E-02
               8.7773832991436783E-03
              -6.0644455633120423E-05
               9.4904027371430673E-03
              -4.5048788343866279E-03
              -2.7117793279689949E-03
               7.6860008294526484E-04
               1.1109372193110785E-02
              -4.9206234727578284E-03
               5.9785289876618823E-03
              -7.6440500097859547E-04
              -1.1887137443555349E-02
               7.1700318334891712E-04
               2.2195430453830832E-03
               2.4149714485689850E-03
              -8.5413236279965714E-03
              -6.7675832179619382E-04
               1.1979562325768234E-02
              -2.1978235472705594E-03
              -6.2474825264695038E-03
              -1.3945028021400345E-02
               8.5054925067372441E-03
               7.6137993725722091E-04
              -3.3770376050885806E-03
               5.3053678845897904E-03
              -1.0745300233040914E-02
               6.2123709301886466E-03
               2.7250331514689410E-04
              -9.9683731866115821E-04
               4.8829603975250287E-04
               6.6594595473724125E-03
              -5.4936891705414720E-04
              -3.3649185973475522E-03
              -1.0336669092889363E-02
               2.4823072048471518E-03
              -7.6734365169415604E-03
               1.1821724720925813E-02
               1.8269910909688089E-02
              -9.2302372683963317E-03
               7.7868975334823651E-03
              -5.7250636594676114E-03
               9.2891075694189282E-03
               1.1613930029781824E-02
              -3.3446423203461707E-03
              -6.1986748777005463E-03
              -1.4015330403375067E-02
               6.6404877098280258E-03
              -2.0743487078088603E-03
               6.0281328012273400E-03
               7.2938374310239631E-03
              -1.3668112363999082E-03
              -1.6515847609880267E-03
              -2.0346777100500989E-03
              -1.4836544303995208E-02
               6.8766401178998173E-03
              -1.0370387354913899E-03
              -2.5569799133509821E-03
               2.2877618973176990E-03
              -8.7476056411000505E-04
               9.1251317936335077E-03
               1.9754903423696873E-02
               5.1464481238145789E-03
              -3.0724854293269523E-02
               4.5233153476668475E-03
               6.7668259189569337E-03
              -5.7821496432058205E-03
               5.0484352853495142E-04
               2.6491888300843873E-03
              -1.6310988579518587E-03
               2.7849826057733749E-02
               6.4797780942122823E-03
               1.8231588450566879E-02
               2.6800509500914740E-03
              -1.3248464399169955E-02
               8.0333500300907874E-03
               1.3713920672962874E-02
               1.5213238983337138E-03
               1.6325890897258243E-02
              -8.1664021963293604E-03
              -7.3179586622925947E-05
               5.1368348643526915E-04
               1.4598873631489128E-02
              -3.6507279605966017E-04
              -8.5595403160306470E-03
               5.6124818405293431E-03
              -9.3875511744311024E-03
              -1.0633868469867764E-03
               4.0200364646423596E-03
              -2.3919704495281068E-03
               2.0956925500441488E-03
               3.5267791552243996E-03
               6.1453916703974433E-04
               9.3610070857375093E-04
              -1.0170517735048607E-02
               4.6130800048644780E-03
               8.9968237830609140E-03
              -3.8602141498405272E-04
               1.1056776343913196E-03
               5.9723324603973369E-03
              -3.2184775938438096E-03
              -1.3169110519977746E-02
               9.6758983841719794E-03
               8.2030062858909451E-03
              -8.1585514522918186E-03
               1.5418912665657990E-02
               1.2113111407141687E-03
              -2.2783008471324298E-03
              -1.4148180555649506E-03
               8.1419292028260433E-03
              -4.9282431481791266E-03
               4.2211575196485331E-03
              -8.0042281544943257E-03
               7.0355151936180131E-03
              -4.1463590992643551E-03
               7.3708305597582242E-03
              -8.7752673158002215E-04
              -1.0865162936921210E-03
              -1.5845013831007847E-02
               7.1170860068363153E-03
               8.2404746973490893E-03
              -2.5857508693086892E-03
              -8.8588729069521872E-03
               5.4438780346255369E-03
              -5.1903182825888193E-04
               8.3176794130564169E-04
              -9.8652376421853299E-03
               9.4921131606337647E-04
               1.0082585553156768E-02
              -5.3215124867301991E-03
              -3.0987012138604113E-03
              -1.2028765411667103E-02
               1.6389916144276934E-03
               3.8999792809118203E-03
              -3.0855178626760144E-04
              -9.4953807546555740E-04
               7.1075924030745245E-03
               1.0412505143279531E-02
              -3.2139368889084119E-04
              -2.3058329983787710E-04
              -1.1877459331344248E-03
               1.6021389288477684E-03
              -9.0348856668874306E-04
               6.8176959222876520E-03
               1.7607338810514575E-03
              -5.3682612001146610E-03
               1.1188756497783709E-02
              -1.8070794091969776E-04
              -7.6007349020904861E-03
              -1.7715237284201314E-02
               7.6610394782267799E-03
              -4.2370616315037749E-03
              -2.1599843732647405E-03
               2.0771819275412040E-03
              -5.3013142244368429E-03
              -8.5412439033860762E-04
               5.5403029359641209E-03
               1.0113977211969214E-02
              -2.2867234970757209E-03
              -1.2179666347907222E-03
              -1.7016169629248756E-04
              -3.9475437212966643E-03
              -4.9218077749345820E-03
              -5.0060551343007421E-03
              -2.4679772385994433E-03
               9.2222775968424202E-03
               7.0862482846839152E-03
              -1.1585094359657553E-02
               3.9835421983784886E-03
               9.1136343933267503E-03
               2.4943326829193007E-03
              -1.1727662385428144E-03
              -1.1993485030605131E-02
               1.9314513461340943E-02
              -2.4770230003780054E-03
               1.1233994002142979E-02
              -1.0855606135226920E-02
              -9.8704953436117068E-03
              -1.4880007371613725E-03
               1.2463741965230816E-02
               7.5329864275629288E-03
               1.7550968892949051E-03
              -3.9054202273815612E-03
              -1.6388653482502520E-03
              -1.5128482731131166E-02
               6.7553082944813714E-03
               2.4667414215817356E-02
              -4.4772777499174320E-03
              -3.1157598822420651E-03
              -2.6260878936783041E-03
               1.6563195417679918E-02
              -5.8693427105998841E-03
              -1.3474226790346209E-02
               2.0388877740159447E-02
               1.4290685902010001E-02
              -1.8353325369404899E-02
               3.4728904786891189E-03
              -1.6836230884683528E-03
               2.0149703058718049E-03
               1.6857377170379273E-02
               2.9940238482562029E-03
              -1.0553332700508931E-02
              -6.0751387965944995E-03
              -6.5581205508018405E-03
               1.5116147466465090E-02
               7.0942345611246386E-03
               2.6335205646503285E-04
              -3.8278511263057920E-03
              -1.0657304547881923E-03
               4.3565922902281777E-03
               6.6042215335161943E-03
              -3.9707134766817859E-03
              -8.7560100262343496E-03
               3.3213770899686223E-03
              -1.4680897772190721E-02
              -6.7772316352642014E-04
               4.9724320447589957E-03
               1.6338524570793287E-03
               1.8807531757707853E-03
               6.7322636097556909E-03
              -1.2497386720769025E-02
               1.1885371833491597E-02
               7.8024850899514799E-04
               7.6703462375249665E-03
              -6.8924944740480457E-04
               3.1352363262003393E-03
              -1.1983835598352453E-02
               4.4705421128373403E-03
               3.6355678236927951E-03
              -8.3030511180380955E-03
               8.5813123192866689E-03
              -6.3190675777037566E-03
               3.2699779846833811E-03
               1.7765467310631991E-03
               3.6884896323011885E-03
              -6.8434312297948165E-04
              -1.4536405659870840E-03
              -6.5505609918367312E-03
               3.8243090354078448E-03
              -8.9628884796388777E-04
               3.7983236135399204E-03
               3.2007914275804478E-03
               8.0383731071589498E-03
              -9.5876675963396697E-03
               8.8963794040869265E-03
              -3.8256283599657635E-03
              -6.1435135754719908E-05
               5.2347746716976083E-03
              -9.0279506246158589E-03
               1.0014314878897073E-03
              -8.6741230301850094E-04
              -3.9159115171036457E-03
               9.8958788058983076E-04
              -6.3076197053372795E-03
              -1.1629643435515388E-02
               4.0445038131723338E-03
               4.4692153110420501E-03
              -1.0742164903458295E-02
               2.1451259260360143E-02
              -2.0325084724957324E-03
              -3.4485631755043250E-03
               1.0590737326917313E-03
               1.7181277499389178E-02
               1.8441844745976158E-03
              -1.4621301820113954E-02
              -1.7749280435377926E-03
               6.5366558762568775E-03
               2.5515705640177587E-03
              -1.1390663846425214E-03
              -3.8497172817881682E-03
               4.4544810254288974E-03
               4.5816722873817332E-03
              -7.4407472004710566E-03
              -1.4585525037209281E-02
               3.6159451006791779E-03
               7.8673341081691769E-03
               5.0745223236548717E-03
               6.9011442752096707E-03
              -4.4345465385726120E-03
              -3.3596873899490562E-03
              -1.7394275829636225E-02
               2.2280434394512764E-03
               3.6247012491549043E-03
               4.8502725641398506E-04
               2.0771243266635587E-03
               2.9336544200211740E-03
              -1.0670506401135389E-02
               7.2475575966440137E-03
               2.0434272320580108E-03
              -6.1607186878891527E-03
               1.7462680047576642E-02
              -1.8595537382958894E-03
               4.4972837107225895E-04
              -9.5087950261324959E-03
               5.2142835834764019E-04
              -3.2259911638098172E-05
              -3.0664482656440175E-05
               3.0898309803503890E-03
               4.4995823368234392E-03
              -1.1575756084627693E-02
              -2.1239840478818760E-04
              -1.3945133373268498E-02
              -9.8014997447673242E-04
               6.4494958827950042E-03
              -2.6606299610456852E-03
               3.4194421084641890E-03
               5.1815875213897132E-03
              -1.0723668755914305E-03
              -4.2431969361797529E-03
              -5.9594986145598914E-03
               5.8383549049094742E-03
               1.8467799974197531E-03
              -6.8548266049945523E-03
               2.8728022832595923E-03
               6.0764679720628047E-04
              -3.5489749044045867E-03
               5.7064729669886582E-03
              -5.4273027243194002E-04
              -4.1280819110088114E-03
              -7.0199301564474494E-03
               1.0138476976748106E-02
              -3.9199164966336958E-03
               7.5686543434243247E-04
              -9.0339361948008120E-03
              -3.9592759528578030E-03
               4.1885942320408088E-03
              -4.4289271831642841E-03
              -3.1763553347432683E-03
              -1.5527511612432031E-02
               1.1649377002856913E-02
               8.7565946687053146E-03
               2.9788198431989219E-03
               3.9772916062323123E-04
              -3.9513720646756873E-04
               1.2212826452089622E-02
              -1.8728091883416470E-03
              -1.3083079144195573E-03
              -9.4133725786833267E-03
               7.9620753957910465E-04
               1.0550534591607413E-02
               2.0732383785633918E-03
               6.5955520887970229E-03
               6.3254711477773061E-03
               1.2297090802605697E-02
               6.8592205840153474E-03
              -1.1929419277228678E-02
              -5.3952759520655234E-03
              -1.3613865573066705E-02
               5.3234299740988235E-03
               3.2854167277919562E-03
               4.9455347442368715E-03
              -5.5992267029701358E-03
              -1.0204015123844003E-02
              -6.3065847604253863E-03
              -5.2145465391551628E-03
              -4.1439680060432488E-03
               1.6578623631060326E-02
               4.8585025207936025E-03
              -3.7686566772408658E-03
               5.8990409540049232E-03
               2.1287472277808010E-03
              -2.1526391266234336E-03
              -1.3509226785128281E-02
               6.6623963264700265E-03
               9.4870201136173279E-03
              -6.7182354710104307E-03
               4.4463944220385198E-03
              -5.9318833811516552E-03
               1.9318958300612327E-03
               3.1608527605966894E-03
              -7.1569963162907042E-03
               1.2916377134720831E-02
              -3.1752872553090362E-03
               4.2384070069539535E-03
              -6.1900986540691918E-03
              -3.8504141981644769E-03
              -6.2905179766893074E-03
              -3.6814403512201656E-03
               3.9143728433549086E-03
               1.0341415483375678E-02
              -5.0138277720402141E-03
              -5.6280812774778585E-03
              -1.8073034054788544E-03
              -6.5084669550631753E-03
               9.7909829285944307E-03
               1.9400838130139806E-03
               4.5073283319402770E-03
               3.6889830176504768E-03
               5.2366635668382941E-03
              -7.8762840845601860E-03
              -6.8498956666350561E-03
               4.1609194241121793E-03
               3.7836205865877373E-03
               4.4145174550135977E-03
              -1.2134148407394541E-03
               8.0226777282490919E-03
               1.2957874213581559E-03
               4.6812744361669359E-03
              -6.4097030415557798E-03
               1.0878018687644719E-02
               2.5252182739600171E-03
              -1.0677902795981934E-02
              -2.9674921455142981E-03
               1.9214890605948047E-03
               7.0697875006515871E-03
               3.2826352795246620E-03
              -1.4950994956404173E-02
               6.7614747577563038E-03
               4.6665656293931159E-03
              -1.1206901796306150E-02
               1.3830710025829890E-02
              -1.5077851824602017E-02
              -8.0373434619840410E-04
               4.3109955272047362E-03
               4.9800066349148476E-03
               4.7402457399012554E-03
              -2.4793020705637325E-02
               9.0254622784950670E-03
               1.2354419072632898E-02
               2.9729100961721623E-03
              -4.3360491470796183E-03
               5.0742997684016808E-03
              -4.9309048339048617E-03
              -5.1228677068228265E-03
               6.8171271082119803E-03
               1.9695280240214744E-03
               1.1061692763945025E-02
               2.3263261817996345E-03
              -1.3398371373292228E-02
              -1.0143891611071572E-02
               1.8052328648746341E-03
              -1.2436758695722204E-04
               1.1025106394633643E-03
               4.1543989938690309E-04
              -2.3939597878525846E-04
               4.8531500982038648E-03
               1.4211984412173366E-03
               1.7551268018916820E-03
              -3.0453783639246669E-03
               2.0711809329582546E-03
               3.6021335306379077E-03
              -3.5133165192962200E-03
               3.9460610813344763E-03
              -6.6035410378229818E-03
               1.1675833338979645E-02
               7.7528503017001817E-03
              -1.2497572090065742E-02
               2.4258538696544825E-03
              -1.5235023655041499E-03
              -4.2301329179006576E-03
               5.4830462492376421E-04
               1.5198561178148564E-03
               1.6464890900239032E-03
              -7.3544677982669341E-04
               1.0624636085909044E-02
               1.1949372133879506E-03
              -1.2450347814518651E-03
               7.3512046223812742E-03
              -3.6018589010558847E-03
              -6.5293571988710242E-03
              -6.0267298144857902E-03
               7.3274089482362331E-03
              -8.1030018076875630E-03
              -3.8555254073785669E-03
               5.4326756831370795E-03
              -1.2202754118725546E-03
              -7.8917504095838732E-03
              -5.0583528282340689E-04
              -6.7088672440982463E-03
              -4.7154405824953675E-03
               6.6633521060196939E-03
               1.4313090008113930E-02
               1.4558743257765423E-02
               4.4124013779505786E-03
              -5.5213729812670417E-03
         &END THERMOSTAT_ENERGY
         &RNG_INIT
Wiener process for Thermostat # 1        1 F T T  -1.5601997779545997E+00        4027757407.0        1559045809.0        3403552754.0        1703120254.0         453778739.0        2861026355.0             12345.0             12345.0             12345.0             12345.0             12345.0             12345.0             12345.0             12345.0             12345.0             12345.0             12345.0             12345.0
Wiener process for Thermostat # 2        1 F T T  -4.0112764818655514E-02        3838101567.0        1430396723.0        1556923290.0        2889325561.0         607612135.0        3761282217.0        3692455944.0        1366884236.0        2968912127.0         335948734.0        4161675175.0         475798818.0        3692455944.0        1366884236.0        2968912127.0         335948734.0        4161675175.0         475798818.0
Wiener process for Thermostat # 3        1 F T T  -2.7485675335982579E-01         482699311.0        2506409672.0        1202736307.0        1073196783.0        1141297417.0        2856513754.0        1015873554.0        1310354410.0        2249465273.0         994084013.0        2912484720.0        3876682925.0        1015873554.0        1310354410.0        2249465273.0         994084013.0        2912484720.0        3876682925.0
Wiener process for Thermostat # 4        1 F T T  -9.8957058820594379E-01        3129827523.0        3549124345.0        1353678049.0        1344233659.0        2578763699.0        1106953444.0        2338701263.0        1119171942.0        2570676563.0         317077452.0        3194180850.0         618832124.0        2338701263.0        1119171942.0        2570676563.0         317077452.0        3194180850.0         618832124.0
Wiener process for Thermostat # 5        1 F T T   8.1743834600370391E-01         587879607.0         702838090.0         820286405.0        1159088393.0        1840431053.0        2379049004.0        1597262096.0        3906379055.0        3312112953.0        1016013135.0        4099474108.0         275305423.0        1597262096.0        3906379055.0        3312112953.0        1016013135.0        4099474108.0         275305423.0
Wiener process for Thermostat # 6        1 F T T  -4.6635220676026440E-01        1255338812.0        2941627828.0        2767710176.0        1701464963.0        2824905014.0        2257709657.0          97147054.0        3131372450.0         829345164.0        3691032523.0        3006063034.0        4259826321.0          97147054.0        3131372450.0         829345164.0        3691032523.0        3006063034.0        4259826321.0
Wiener process for Thermostat # 7        1 F T T  -2.7221417990508723E-01        2928923925.0        1475590831.0        3028549759.0        1729569924.0         123262326.0        1965188850.0         796079799.0        2105258207.0         955365076.0        2923159030.0        4116632677.0        3067683584.0         796079799.0        2105258207.0         955365076.0        2923159030.0        4116632677.0        3067683584.0
Wiener process for Thermostat # 8        1 F T T  -1.3371509559371584E+00        3293786404.0        2324351260.0        4224364702.0        1341956089.0         912321799.0        2697559406.0        3281794178.0        2616230133.0        1457051261.0        2762791137.0        2480527362.0        2282316169.0        3281794178.0        2616230133.0        1457051261.0        2762791137.0        2480527362.0        2282316169.0
Wiener process for Thermostat # 9        1 F T T  -8.7225140957356684E-01         657961678.0        1513147170.0        2219186603.0        4111646695.0         616753226.0        2747528653.0        3777646647.0        1837464056.0        4204654757.0         664239048.0        4190510072.0        2959195122.0        3777646647.0        1837464056.0        4204654757.0         664239048.0        4190510072.0        2959195122.0
Wiener process for Thermostat # 10       1 F T T  -6.2889449580622436E-01          96284293.0        2446379684.0        3801610533.0        2961863039.0        1877110468.0         129512113.0        4215590817.0        3862461878.0        1087200967.0        1544910132.0         936383720.0        1611370123.0        4215590817.0        3862461878.0        1087200967.0        1544910132.0         936383720.0        1611370123.0
Wiener process for Thermostat # 11       1 F T T   5.7191327297384098E-01         909895394.0        1862319182.0        2400367466.0        1201802882.0        2818881371.0          83822050.0        1683636369.0         362165168.0         814316280.0         869382050.0         980203903.0        2062101717.0        1683636369.0         362165168.0         814316280.0         869382050.0         980203903.0        2062101717.0
Wiener process for Thermostat # 12       1 F T T  -2.0098512161557830E-01        4281566709.0        2729512869.0         275332126.0         437149450.0        1041778670.0        1778805263.0         272317999.0         166758548.0         310112982.0         201045826.0        1680231254.0         118290799.0         272317999.0         166758548.0         310112982.0         201045826.0        1680231254.0         118290799.0
Wiener process for Thermostat # 13       1 F T T   9.4560796151122029E-01        3557498645.0        2583014714.0        2425630516.0         920535172.0        3770643442.0         978988578.0        2245755202.0        1652682525.0        2865544364.0         721509566.0         209733568.0         592362218.0        2245755202.0        1652682525.0        2865544364.0         721509566.0         209733568.0         592362218.0