 # Version information for this restart file 
 # current date 2022-11-29 20:49:33.148
 # current working dir /scratch/work/courses/CHEM-GA-2671-2022fa/tp2353/comp-lab/comp-lab-class/Week12/Runs/Protons
 # Program compiled at                              Sat Dec 12 18:27:15 EST 2020
 # Program compiled on                                         cs001.nyu.cluster
 # Program compiled for                                                nyu-intel
 # Source code revision number                                       git:8c64c6e
 &GLOBAL
   PRINT_LEVEL  LOW
   PROJECT_NAME proton_aimd_1ns_every0.5fs
   RUN_TYPE  MD
   WALLTIME 21600
 &END GLOBAL
 &MOTION
   &GEO_OPT
     OPTIMIZER  BFGS
     MAX_ITER  100
     MAX_DR     3.0000000000000001E-03
     &BFGS
     &END BFGS
   &END GEO_OPT
   &MD
     ENSEMBLE  NVT
     STEPS  2000
     TIMESTEP     4.9999999999999994E-01
     STEP_START_VAL  2000
     TIME_START_VAL     9.9999999999998226E+02
     ECONS_START_VAL    -1.1027507157744390E+03
     TEMPERATURE     3.0000000000000000E+02
     &THERMOSTAT
       TYPE  GLE
       REGION  MASSIVE
       &GLE
         NDIM  5
         A_SCALE     1.0000000000000000E+00
         A_LIST     1.8595758612559999E+02    2.7263853498399998E-01    1.1526100454610001E+01   -3.6414578262600003E+01 \
             2.3173375816020001E+02
         A_LIST    -2.7809524712060002E-01    8.5951591808710006E-05    7.2189048017650004E-01   -1.9844539343859999E-01 \
             4.2409257583420001E-01
         A_LIST    -1.4825808131210000E+01   -7.2189048017650004E-01    1.3590902121280000E+00    5.1498896280349999E+00 \
            -9.9949268450990001E+00
         A_LIST    -1.0372189126880000E+01    1.9844539343859999E-01   -5.1498896280349999E+00    2.6661910891169999E+01 \
             1.1507715495310000E+01
         A_LIST     2.1801346360420001E+02   -4.2409257583420001E-01    9.9949268450990001E+00   -1.1507715495310000E+01 \
             3.0958394565589998E+02
         &THERMOSTAT_ENERGY
               6.5954413008492490E-04
              -2.6940455169499030E-03
              -3.2615584572417318E-03
               4.1389791383764047E-04
              -2.0229665774933139E-02
               1.6567100621347340E-03
              -6.4380235638803905E-03
               9.5729884322998332E-04
               5.2069401524380901E-03
               1.5291506492129180E-03
               7.0804579458125984E-03
               4.6575956585567929E-03
              -8.4542686171198457E-03
              -3.2533950948942128E-03
               6.5993616517208541E-03
              -3.9023075314551657E-03
               3.1120758060267676E-03
              -2.2394948881258465E-04
               3.4773003615127304E-03
               1.0607471422849481E-03
               6.8636554625926675E-04
               9.8633780707309028E-03
              -8.0905015175587215E-03
              -1.1198923456788010E-02
               3.0198386684822891E-04
              -6.3813551614646698E-03
              -1.4767899216812472E-03
              -1.8708843202570368E-03
               1.8912639242124338E-03
               3.8686690286735517E-03
              -3.3612282257142849E-03
               2.8782319982834964E-03
               8.4762727196328758E-03
               3.3694141589775257E-05
               1.4133139155031935E-03
               8.3912630603476552E-03
               2.8933752386647248E-03
              -2.3024089109480316E-03
               1.6877181399401222E-03
              -1.2419871297712568E-03
               8.0615340253569531E-03
              -8.5683419475310225E-03
               6.4553868954377305E-03
               3.6854718110329258E-03
               5.7753954678048738E-03
               1.4501658871219386E-03
              -7.0594641181257901E-03
              -1.1927885019202844E-03
               1.9716043640505818E-03
              -9.1497247205383212E-04
              -2.5925577568210630E-03
               9.1541232062330776E-03
              -7.9649448392970154E-03
              -9.8698033400024861E-03
              -9.0387666209332217E-03
               2.4338577142033547E-03
               1.2626179459901913E-03
              -1.0980728645881021E-02
              -1.5217358696291876E-03
               1.2383292339364230E-02
              -1.2006618490669717E-03
              -6.5226170075372309E-03
               1.9659108011011530E-02
               8.7170142378988698E-04
              -3.9976078830703350E-03
               3.6393220779209123E-03
              -1.2128950852882273E-03
               1.0602300727177674E-02
               1.7739583309984461E-02
              -3.2502779052843559E-03
              -3.1948278371514175E-03
              -5.5288189152435992E-03
              -2.4357505067493833E-03
               2.1552274348464501E-03
              -3.4915290584925387E-03
              -1.3054405493452201E-02
               8.6556684300639498E-03
              -1.8965804235709231E-03
              -1.8810001111713491E-03
              -3.7985504157900412E-03
               8.0550535366509385E-03
              -5.9334383042790248E-03
               1.2805804865516691E-03
              -1.7264756465543074E-03
               1.3477779781823501E-03
               1.0796489006286545E-02
              -6.4390794375011095E-03
              -8.6436345908644640E-03
               1.0739313113922950E-02
              -9.9266948775336272E-03
               9.4539369284578887E-04
              -8.4149731491805491E-03
              -2.1198743076169711E-05
              -1.8517699492818197E-03
              -4.5890889422600572E-03
               8.7063184457906138E-03
               7.2083540046708758E-03
               4.9295149920164311E-03
               1.0667164202651664E-02
               3.8586854923012542E-03
              -4.7582366948458908E-03
              -2.4641245829876341E-03
               2.7550529788295118E-03
              -3.2504346620162291E-03
              -1.8143582987955227E-03
               1.3969209290798807E-02
               8.8226535389035379E-03
               9.6422254547700746E-04
               9.4579310712055321E-03
              -4.9014032749370821E-03
              -1.6414080629535337E-03
               1.5386094161849459E-03
               1.0473469213969041E-02
              -4.9547958732091436E-03
               6.0164633688649044E-03
              -7.4977222299846410E-04
              -1.2210358465748739E-02
               6.6558771377826082E-04
               2.2185957342238695E-03
               2.6422425280154382E-03
              -8.4405420975283193E-03
              -2.9114513442173078E-04
               1.1980176997404807E-02
              -2.1926533243236605E-03
              -6.7434818684062496E-03
              -1.4210675410878079E-02
               8.2965889065680243E-03
               5.6676463839086500E-04
              -3.6923623197978716E-03
               5.5014392621222253E-03
              -9.2796352694557438E-03
               6.3611953815987049E-03
               4.1052693360863943E-04
               3.1933723694218559E-04
              -4.4938445732547962E-04
               7.1137565940488385E-03
               2.4003366868479911E-04
              -2.9754056724050179E-03
              -1.0400771870150555E-02
               3.0711559825851477E-03
              -8.4217216354777347E-03
               1.1327739180469702E-02
               1.8255775328949109E-02
              -8.9985861761723452E-03
               6.8488551083788866E-03
              -5.7334433243519823E-03
               9.4155227709375178E-03
               1.1583151974901847E-02
              -3.1994194871165153E-03
              -5.9488234426313853E-03
              -1.3989887748586761E-02
               6.5972554248613438E-03
              -2.0655558981913145E-03
               5.9955118292925871E-03
               7.3399452668363816E-03
              -8.2697884348055138E-04
              -1.5807482555378442E-03
              -1.9705706886762511E-03
              -1.4137077127925314E-02
               7.0324189567509687E-03
              -1.0435461285108240E-03
              -2.5513498304007148E-03
               2.2294122827903593E-03
              -8.8094007102655159E-04
               8.6006144127662755E-03
               1.9973074343265777E-02
               4.8733874372884909E-03
              -3.0410862165724913E-02
               4.5023180242517967E-03
               6.7405427394133235E-03
              -5.0384174487420677E-03
               5.2785062389710060E-04
               3.1292419677701367E-03
              -1.5539952247880567E-03
               2.7500290391328463E-02
               6.3473429550608635E-03
               1.8032247061711290E-02
               2.5370616044600022E-03
              -1.3417004161534600E-02
               8.0095134529665924E-03
               1.3571946738247848E-02
               1.4662855143459212E-03
               1.6314895055212275E-02
              -8.1270291434733244E-03
              -2.6337871776970997E-04
               9.6351717678948084E-04
               1.4328271192625558E-02
               3.7082538644190590E-04
              -8.4217176167295099E-03
               5.7622124738647834E-03
              -9.5130181321209581E-03
              -8.0745558070229170E-04
               4.2481667654207236E-03
              -1.5841351326317658E-03
               3.2591467539783477E-03
               3.5972426391764393E-03
               8.7294165947548303E-04
               1.2043331642982080E-03
              -1.0282998125875456E-02
               4.5289233584215344E-03
               1.0316732339831335E-02
              -4.7691442105261947E-04
               9.6423065642530002E-04
               5.7175724009764679E-03
              -2.7667338435118645E-03
              -1.2903484252188763E-02
               9.7514298935016241E-03
               7.5563010395633175E-03
              -8.2212905414136787E-03
               1.5113719069460008E-02
               1.2558050340927200E-03
              -1.6175334806008560E-03
              -1.1988687479515957E-03
               8.0878476597868697E-03
              -4.9504737771587032E-03
               4.1097116357877187E-03
              -8.1568819499492178E-03
               7.3073766006016682E-03
              -4.7016290043156717E-03
               7.3366051212800289E-03
              -8.9458282242417910E-04
               3.8404793731644190E-04
              -1.4532932660189794E-02
               7.4113445893600931E-03
               8.5305856158391091E-03
              -2.5298420114994390E-03
              -8.8391770718101413E-03
               5.1777446196230991E-03
              -6.2511374217963074E-04
               4.9429987116841943E-04
              -9.1814063249106206E-03
               8.8957561210890174E-04
               9.9855841624110556E-03
              -5.6146330288222119E-03
              -3.9331577895923243E-03
              -1.1672912069493797E-02
               1.9304645044661765E-03
               3.8640647982506899E-03
              -4.0336679229264886E-04
              -4.9724658201416876E-04
               7.1181001134232175E-03
               1.0503439175527641E-02
              -3.6310856995580218E-04
               3.7036642251707754E-04
              -9.5163685492369082E-04
               1.4289109856818537E-03
              -6.8540806572589118E-04
               6.0996933534823439E-03
               1.8250155434481644E-03
              -5.5009777874133079E-03
               1.1488562697612186E-02
              -2.0107821384689306E-04
              -7.5403161124746295E-03
              -1.7771226006816240E-02
               6.7871164024798231E-03
              -4.0662898606395265E-03
              -1.8725986215514471E-03
               2.1033947167815132E-03
              -5.0217706074044246E-03
              -1.8393135954873508E-03
               5.9997104376388281E-03
               1.0077140486609194E-02
              -1.0728100841722659E-03
              -1.7585141677580389E-03
              -2.9784405834813233E-04
              -3.9654806207367489E-03
              -4.7620243860236333E-03
              -4.9731517724337301E-03
              -3.0101611423720832E-03
               9.1729205437297411E-03
               7.3845731388622569E-03
              -1.1516739470942250E-02
               3.9557060239784727E-03
               9.2050478670921507E-03
               2.6383415082920684E-03
              -1.1505835402918828E-03
              -1.2056042541786010E-02
               1.9213101192576347E-02
              -2.5234873149606852E-03
               1.0890851891621688E-02
              -1.1602503265013882E-02
              -1.0481482374006642E-02
              -1.3786716941026954E-03
               1.3525040652550622E-02
               9.2107121712504611E-03
               1.4264305035215786E-03
              -4.1250217178012060E-03
              -1.6241589897189059E-03
              -1.5517206253501666E-02
               7.4403547226869534E-03
               2.4729633481882000E-02
              -4.3474961062358432E-03
              -2.9924287158447399E-03
              -1.3538869376307624E-03
               1.5563985804460948E-02
              -6.1176385826335663E-03
              -1.3597111280431312E-02
               2.0103235064389310E-02
               1.4262533534123047E-02
              -1.8297647027591731E-02
               3.5536005745535940E-03
              -1.1956084832979936E-03
               1.9924850039642204E-03
               1.6857646946341478E-02
               2.6824296625685487E-03
              -1.0410620726358673E-02
              -5.6940637671174816E-03
              -6.5383617217967243E-03
               1.5136582384282110E-02
               7.0035437460464808E-03
              -3.0478619369677350E-04
              -3.7974498129962333E-03
               6.0099511713991366E-04
               3.9460464560465971E-03
               6.2997046537217024E-03
              -5.7073745525342556E-03
              -8.7573907615348875E-03
               3.2115465674462415E-03
              -1.4750918491676805E-02
              -8.1246762042282909E-04
               4.8385109804202180E-03
               1.5074253146094970E-03
               1.1957370164760819E-03
               6.7217254493865545E-03
              -1.1957633693918897E-02
               1.1816101822980974E-02
               8.2523569960144102E-04
               7.6998725166932324E-03
              -3.0237631977807688E-04
               3.0662846627058432E-03
              -9.1378780383442448E-03
               4.1498705915586909E-03
               2.0713098171517962E-03
              -7.6213036162163786E-03
               8.5834154680700901E-03
              -6.3674552823826660E-03
               3.2704310885129486E-03
               8.1998130253320292E-04
               3.7215413245210377E-03
              -1.5740907873456268E-03
              -1.5495717753150468E-03
              -5.7261011590834035E-03
               2.7430869890017612E-03
              -6.3311664285618601E-04
               3.4372129973333728E-03
               2.9778737273081857E-03
               8.6865282419511022E-03
              -9.5177000083267582E-03
               1.0145331990755072E-02
              -4.1976001307170944E-03
              -1.8785343417771275E-04
               5.2372774125674284E-03
              -9.8458805306733746E-03
               6.8263197917413007E-04
              -8.9494426763577232E-04
              -4.0570989332090858E-03
               2.5309302374166166E-04
              -6.3376869967666678E-03
              -1.2135502923386726E-02
               3.9301760104173506E-03
               4.3492097567836112E-03
              -1.0637057141899399E-02
               2.1805617484869810E-02
              -3.0186739564290630E-03
              -3.1786255586646892E-03
               9.6569082562923821E-04
               1.7182152759652191E-02
               1.8910334970872881E-03
              -1.4449820056939610E-02
              -1.8200068208268428E-03
               6.2060759932194634E-03
               2.5415150764886447E-03
              -1.0922490786000993E-03
              -3.5322553322834002E-03
               4.4865611152876527E-03
               4.6708471349575804E-03
              -7.3947102123737901E-03
              -1.4559795433062375E-02
               3.6674728076443301E-03
               7.9070207643070732E-03
               5.0630301053774217E-03
               6.8609632120589688E-03
              -4.5056280103496892E-03
              -3.4467933355242430E-03
              -1.7210058695951803E-02
               3.2552637605955019E-03
               3.4907700026449748E-03
               6.6374741976112073E-04
               1.7585746471648904E-03
               2.9486226288109462E-03
              -1.0799587653520929E-02
               7.1808629048457995E-03
               1.8331935481079324E-03
              -6.5744329610239642E-03
               1.7449632823721889E-02
              -2.0464045247167890E-03
               3.8606925207306777E-04
              -9.3563872498082044E-03
               7.6154650933313534E-04
              -7.4200736914032197E-05
              -3.5497039603767360E-04
               3.5305233825067492E-03
               4.3302804680885798E-03
              -1.1873751628478020E-02
               3.4976609787004892E-04
              -1.3931831852183782E-02
              -2.5914136607508973E-04
               6.1611277431200704E-03
              -3.1129728237304622E-03
               3.4021846910241658E-03
               5.6644438994191641E-03
              -8.5797792424946082E-04
              -3.3315067701265950E-03
              -6.3633531564532050E-03
               5.8821581263785562E-03
               1.6901745468278020E-03
              -5.2816654377825034E-03
               2.9021807770923413E-03
               9.0531408635297777E-04
              -3.5320350906421103E-03
               5.6982439370421379E-03
              -5.2105877970465677E-04
              -4.3403194887922823E-03
              -7.0856259077615663E-03
               1.0116832432751291E-02
              -4.6811884428091090E-03
               7.1940804493373766E-04
              -9.2119153051087015E-03
              -5.0788218338334735E-03
               4.2432632501654593E-03
              -4.5536746239292509E-03
              -3.4790841140555991E-03
              -1.5029818319062563E-02
               1.1350421696157747E-02
               9.0981418317866714E-03
               4.4327190923761899E-03
               3.3179427764120674E-04
              -1.2041523225551115E-03
               1.2876341365065339E-02
              -1.4444115019070366E-03
              -2.0069188073073389E-03
              -9.5073904599870251E-03
               4.1036438357138622E-04
               1.0080895984020982E-02
               2.1370700571370286E-03
               6.7778733653175776E-03
               6.4627374964971417E-03
               1.1737673114995144E-02
               7.0984938304042046E-03
              -1.1812107771802719E-02
              -5.0058375603338322E-03
              -1.3286830618565303E-02
               5.6004879966661762E-03
               3.2151506367156155E-03
               4.5355647422015370E-03
              -5.6257617808539405E-03
              -1.0188673436010981E-02
              -5.8691915484032648E-03
              -4.7704536111021750E-03
              -4.2772205521945930E-03
               1.6625596530893898E-02
               4.8341307972699660E-03
              -3.4786156721871970E-03
               6.8879230251514675E-03
               2.0492030733137326E-03
              -2.3584280716923145E-03
              -1.3492318072464028E-02
               7.0709291497986927E-03
               9.4981103071201094E-03
              -7.0744758813688115E-03
               4.7015591880536518E-03
              -5.9801456955296201E-03
               2.5426768171918183E-03
               2.8431522378945325E-03
              -6.5258910818097602E-03
               1.2490847374206868E-02
              -2.5364866557933885E-03
               4.2157160327390758E-03
              -5.8804764528740359E-03
              -3.7815393580893368E-03
              -5.8475043899934021E-03
              -3.6727323508341046E-03
               3.5595775193141580E-03
               1.0346197613933699E-02
              -5.9347263496114244E-03
              -4.7825372847597920E-03
              -1.6966197083783676E-03
              -6.3443052719766120E-03
               9.9085633674334799E-03
               2.0129132696928066E-03
               4.4326727709896657E-03
               3.8502100604212654E-03
               5.3604102951827987E-03
              -7.8539801396968877E-03
              -6.9039908296739368E-03
               4.0971001053157173E-03
               4.3846081320618969E-03
               4.0873683338519384E-03
              -1.0761884990300073E-03
               7.9851244004114554E-03
               1.7356264994349334E-03
               4.9084182739747156E-03
              -6.2449620335293986E-03
               1.1211701342600935E-02
               2.2947154796026342E-03
              -1.0541477522654320E-02
              -3.0786414513541693E-03
               1.4519544464809322E-03
               7.0757754667467561E-03
               3.1653694627626749E-03
              -1.4265381910977154E-02
               6.0590174315350315E-03
               4.6829800361476350E-03
              -1.1318235838130406E-02
               1.3887365934572193E-02
              -1.5122167507869896E-02
              -7.8199243647322347E-04
               4.2392247235088975E-03
               4.6214045559995302E-03
               5.0886224007883072E-03
              -2.4718723403382270E-02
               1.1087347579793978E-02
               1.2313678079849580E-02
               3.1430309251439252E-03
              -4.0981932180019134E-03
               5.1103614380806775E-03
              -5.1264516205790627E-03
              -5.1131188159500704E-03
               6.7183917258690200E-03
               2.4309526497011892E-03
               1.1506870208171822E-02
               2.0586723530536676E-03
              -1.3797448602194701E-02
              -1.0234211114146234E-02
               1.7870059305106164E-03
              -9.7152094947683648E-05
               9.9280387913800437E-04
               2.4520068799107990E-04
              -3.4169329988718009E-04
               4.2347911247270810E-03
               1.3683682705755099E-03
               1.4321571168218956E-03
              -3.1823084486015361E-03
               2.7442282922862395E-03
               3.6142040597198413E-03
              -3.0351382613994921E-03
               3.8698410418160122E-03
              -6.6961660445415292E-03
               1.1340398210389230E-02
               7.5893695794115789E-03
              -1.2018517453986325E-02
               1.6018298011685290E-03
              -2.5268786024091605E-03
              -4.1727026969030391E-03
               8.1595416707357527E-04
               1.4904537209385494E-03
               1.7506730337686937E-03
              -8.9895634635716334E-04
               1.0653270701338174E-02
               1.1165086756640445E-03
              -1.1359486224845417E-03
               7.3646180266012991E-03
              -3.5896127358560604E-03
              -5.6004412284151447E-03
              -5.9159407898144722E-03
               6.9806114953538216E-03
              -8.7953141265793584E-03
              -4.0280667337490063E-03
               5.5417293115505905E-03
              -1.8027482515318477E-03
              -7.9062684172195915E-03
              -5.0033127252676300E-04
              -6.4414350799397065E-03
              -4.6072599097114987E-03
               6.6209333415719303E-03
               1.4427028537460806E-02
               1.4275083937207186E-02
               4.4364938401002746E-03
              -5.3415809092242257E-03
         &END THERMOSTAT_ENERGY
         &RNG_INIT
Wiener process for Thermostat # 1        1 F T T  -4.3866331554119464E-01        3463026290.0         996283881.0        3077134961.0        1575188103.0         352198642.0        1255594993.0             12345.0             12345.0             12345.0             12345.0             12345.0             12345.0             12345.0             12345.0             12345.0             12345.0             12345.0             12345.0
Wiener process for Thermostat # 2        1 F T T   6.1664168869435698E-01         581397078.0        3867423482.0         327967633.0        1486938113.0          26429212.0        4093174459.0        3692455944.0        1366884236.0        2968912127.0         335948734.0        4161675175.0         475798818.0        3692455944.0        1366884236.0        2968912127.0         335948734.0        4161675175.0         475798818.0
Wiener process for Thermostat # 3        1 F T T   2.0518696979926636E+00        1062843694.0        3278483557.0        2630284801.0         342499437.0         508306288.0         570022504.0        1015873554.0        1310354410.0        2249465273.0         994084013.0        2912484720.0        3876682925.0        1015873554.0        1310354410.0        2249465273.0         994084013.0        2912484720.0        3876682925.0
Wiener process for Thermostat # 4        1 F T T   8.6483655468840070E-01         858988242.0         878260951.0        1341305949.0        1687735708.0        1261279903.0        1615458589.0        2338701263.0        1119171942.0        2570676563.0         317077452.0        3194180850.0         618832124.0        2338701263.0        1119171942.0        2570676563.0         317077452.0        3194180850.0         618832124.0
Wiener process for Thermostat # 5        1 F T T  -7.2623034709222295E-02        3503246388.0        3640749438.0          80160185.0        4050541932.0        1809135917.0         826251710.0        1597262096.0        3906379055.0        3312112953.0        1016013135.0        4099474108.0         275305423.0        1597262096.0        3906379055.0        3312112953.0        1016013135.0        4099474108.0         275305423.0
Wiener process for Thermostat # 6        1 F T T   2.6094790259997280E+00        1648662560.0         298744963.0         276080774.0        3452610735.0        2129471280.0        4132861437.0          97147054.0        3131372450.0         829345164.0        3691032523.0        3006063034.0        4259826321.0          97147054.0        3131372450.0         829345164.0        3691032523.0        3006063034.0        4259826321.0
Wiener process for Thermostat # 7        1 F T T   1.3118545096244869E+00        4025695046.0        1027992126.0        3217973651.0        2155997853.0        1780084567.0        1907814450.0         796079799.0        2105258207.0         955365076.0        2923159030.0        4116632677.0        3067683584.0         796079799.0        2105258207.0         955365076.0        2923159030.0        4116632677.0        3067683584.0
Wiener process for Thermostat # 8        1 F T T   7.1524753302764935E-02        2631328646.0          66904958.0        3191287979.0        3452779318.0        2048731614.0        3759050068.0        3281794178.0        2616230133.0        1457051261.0        2762791137.0        2480527362.0        2282316169.0        3281794178.0        2616230133.0        1457051261.0        2762791137.0        2480527362.0        2282316169.0
Wiener process for Thermostat # 9        1 F T T  -1.0980465140389938E-01        1977246253.0        1903248984.0        3508262652.0        2466127224.0         300284070.0         767034957.0        3777646647.0        1837464056.0        4204654757.0         664239048.0        4190510072.0        2959195122.0        3777646647.0        1837464056.0        4204654757.0         664239048.0        4190510072.0        2959195122.0
Wiener process for Thermostat # 10       1 F T T   1.9081094228418396E+00         405211316.0        3215252316.0        3029076279.0        3899943421.0         886526099.0         586515832.0        4215590817.0        3862461878.0        1087200967.0        1544910132.0         936383720.0        1611370123.0        4215590817.0        3862461878.0        1087200967.0        1544910132.0         936383720.0        1611370123.0
Wiener process for Thermostat # 11       1 F T T  -5.3344054384789541E-01        3450000619.0        1059116059.0        3916567347.0         635813254.0        3901690603.0        3696418470.0        1683636369.0         362165168.0         814316280.0         869382050.0         980203903.0        2062101717.0        1683636369.0         362165168.0         814316280.0         869382050.0         980203903.0        2062101717.0
Wiener process for Thermostat # 12       1 F T T   8.9448207812820613E-01        1696219248.0        1783691089.0        1685873716.0        1285524479.0        2726140602.0        4269630803.0         272317999.0         166758548.0         310112982.0         201045826.0        1680231254.0         118290799.0         272317999.0         166758548.0         310112982.0         201045826.0        1680231254.0         118290799.0
Wiener process for Thermostat # 13       1 F T T  -1.0297203341400047E+00        4019568919.0        3484227797.0         947541978.0        4224885921.0        2127446270.0         502669027.0        2245755202.0        1652682525.0        2865544364.0         721509566.0         209733568.0         592362218.0        2245755202.0        1652682525.0        2865544364.0         721509566.0         209733568.0         592362218.0